-45.6841349674                                                          
Freq      RwB97XD                                                     6-311+G(d,p)        
Number of atoms                            I                2
Info1-9                                    I   N=           9
          16          11        1002           0           0         100
           6          18        -802
Full Title                                 C   N=           2
-45.6841349674          
Route                                      C   N=           6
# opt freq wB97XD/6-311+G(d,p) scrf=(smd, Solvent=Chloroform
)           
Charge                                     I                0
Multiplicity                               I                1
Number of electrons                        I               36
Number of alpha electrons                  I               18
Number of beta electrons                   I               18
Number of basis functions                  I               54
Number of independent functions            I               54
Number of point charges in /Mol/           I                0
Number of translation vectors              I                0
Atomic numbers                             I   N=           2
          35           1
Nuclear charges                            R   N=           2
  3.50000000E+01  1.00000000E+00
Current cartesian coordinates              R   N=           6
  0.00000000E+00  0.00000000E+00  7.46311856E-02  0.00000000E+00  0.00000000E+00
 -2.61209149E+00
Number of symbols in /Mol/                 I                0
Force Field                                I                0
Atom Types                                 C   N=           2
                        
Int Atom Types                             I   N=           2
           0           0
MM charges                                 R   N=           2
  0.00000000E+00  0.00000000E+00
Integer atomic weights                     I   N=           2
          79           1
Real atomic weights                        R   N=           2
  7.89183361E+01  1.00782504E+00
Atom fragment info                         I   N=           2
           0           0
Atom residue num                           I   N=           2
           0           0
Nuclear spins                              I   N=           2
           3           1
Nuclear ZEff                               R   N=           2
 -2.45000000E+01 -1.00000000E+00
Nuclear ZNuc                               R   N=           2
  3.50000000E+01  1.00000000E+00
Nuclear QMom                               R   N=           2
  3.13000000E+01  0.00000000E+00
Nuclear GFac                               R   N=           2
  2.10639900E+00  2.79284600E+00
MicOpt                                     I   N=           2
          -1          -1
Number of residues                         I                0
Number of secondary structures             I                0
Redundant internal dimensions              I   N=           4
           1           1           0           0
Redundant internal coordinate indices      I   N=           4
           1           2           0           0
Redundant internal coordinates             R   N=           1
  2.68672268E+00
ZRed-IntVec                                I   N=           1
           0
ZRed-FPVec                                 R   N=           1
  0.00000000E+00
ZRed-Constraint1                           R   N=           1
  2.68672268E+00
ZRed-Constraint2                           R   N=           1
  2.65054433E+00
SymInf integers                            I   N=          26
           1           4           1           1           1          -1
          -1           1          -1           1           1           1
          -1           1           0           0           0           0
           0           0           0           0           0           0
           0           0
RotTr to input orientation                 R   N=          12
  0.00000000E+00  0.00000000E+00 -1.00000000E+00  0.00000000E+00  1.00000000E+00
  0.00000000E+00  1.00000000E+00  0.00000000E+00  0.00000000E+00 -4.22147218E+00
  8.01863896E-02  0.00000000E+00
Number of contracted shells                I               23
Number of primitive shells                 I               41
Pure/Cartesian d shells                    I                0
Pure/Cartesian f shells                    I                0
Highest angular momentum                   I                2
Largest degree of contraction              I                6
Shell types                                I   N=          23
           0           0           0           0           0           0
           0           0          -1           1           1           1
           1           1           1           1          -2          -2
          -2           0           0           0           1
Number of primitives per shell             I   N=          23
           6           3           1           1           1           1
           1           1           1           3           3           3
           1           1           1           1           4           1
           1           3           1           1           1
Shell to atom map                          I   N=          23
           1           1           1           1           1           1
           1           1           1           1           1           1
           1           1           1           1           1           1
           1           2           2           2           2
Primitive exponents                        R   N=          41
  4.39700000E+05  6.60300000E+04  1.51400000E+04  4.31700000E+03  1.41400000E+03
  5.23900000E+02  5.23900000E+02  2.07700000E+02  8.65400000E+01  3.05200000E+01
  1.29800000E+01  4.41200000E+00  1.86200000E+00  3.93200000E-01  1.40000000E-01
  3.50000000E-02  2.95700000E+03  7.00300000E+02  2.24600000E+02  8.25900000E+01
  3.31900000E+01  1.42000000E+01  1.42000000E+01  7.43800000E+00  3.52600000E+00
  1.59500000E+00  8.46200000E-01  3.18600000E-01  1.09600000E-01  1.34800000E+02
  3.63900000E+01  1.21600000E+01  4.34100000E+00  1.53500000E+00  4.51000000E-01
  3.38650000E+01  5.09479000E+00  1.15879000E+00  3.25840000E-01  1.02741000E-01
  7.50000000E-01
Contraction coefficients                   R   N=          41
  8.12983158E-04  6.28486980E-03  3.19193387E-02  1.28797332E-01  3.94591825E-01
  5.41288786E-01  1.83107648E-01  6.17625795E-01  2.53810600E-01  1.00000000E+00
  1.00000000E+00  1.00000000E+00  1.00000000E+00  1.00000000E+00  1.00000000E+00
  1.00000000E+00  2.22598927E-02  1.80199132E-01  8.62395844E-01  3.43987390E-01
  5.07081411E-01  2.58990506E-01  7.96539352E-02  3.73418448E-01  6.04929885E-01
  1.00000000E+00  1.00000000E+00  1.00000000E+00  1.00000000E+00  1.83093925E-02
  1.34995521E-01  4.26085864E-01  6.04279951E-01  1.00000000E+00  1.00000000E+00
  2.54938145E-02  1.90373109E-01  8.52161486E-01  1.00000000E+00  1.00000000E+00
  1.00000000E+00
P(S=P) Contraction coefficients            R   N=          41
  0.00000000E+00  0.00000000E+00  0.00000000E+00  0.00000000E+00  0.00000000E+00
  0.00000000E+00  0.00000000E+00  0.00000000E+00  0.00000000E+00  0.00000000E+00
  0.00000000E+00  0.00000000E+00  0.00000000E+00  0.00000000E+00  0.00000000E+00
  1.00000000E+00  0.00000000E+00  0.00000000E+00  0.00000000E+00  0.00000000E+00
  0.00000000E+00  0.00000000E+00  0.00000000E+00  0.00000000E+00  0.00000000E+00
  0.00000000E+00  0.00000000E+00  0.00000000E+00  0.00000000E+00  0.00000000E+00
  0.00000000E+00  0.00000000E+00  0.00000000E+00  0.00000000E+00  0.00000000E+00
  0.00000000E+00  0.00000000E+00  0.00000000E+00  0.00000000E+00  0.00000000E+00
  0.00000000E+00
Coordinates of each shell                  R   N=          69
  0.00000000E+00  0.00000000E+00  7.46311856E-02  0.00000000E+00  0.00000000E+00
  7.46311856E-02  0.00000000E+00  0.00000000E+00  7.46311856E-02  0.00000000E+00
  0.00000000E+00  7.46311856E-02  0.00000000E+00  0.00000000E+00  7.46311856E-02
  0.00000000E+00  0.00000000E+00  7.46311856E-02  0.00000000E+00  0.00000000E+00
  7.46311856E-02  0.00000000E+00  0.00000000E+00  7.46311856E-02  0.00000000E+00
  0.00000000E+00  7.46311856E-02  0.00000000E+00  0.00000000E+00  7.46311856E-02
  0.00000000E+00  0.00000000E+00  7.46311856E-02  0.00000000E+00  0.00000000E+00
  7.46311856E-02  0.00000000E+00  0.00000000E+00  7.46311856E-02  0.00000000E+00
  0.00000000E+00  7.46311856E-02  0.00000000E+00  0.00000000E+00  7.46311856E-02
  0.00000000E+00  0.00000000E+00  7.46311856E-02  0.00000000E+00  0.00000000E+00
  7.46311856E-02  0.00000000E+00  0.00000000E+00  7.46311856E-02  0.00000000E+00
  0.00000000E+00  7.46311856E-02  0.00000000E+00  0.00000000E+00 -2.61209149E+00
  0.00000000E+00  0.00000000E+00 -2.61209149E+00  0.00000000E+00  0.00000000E+00
 -2.61209149E+00  0.00000000E+00  0.00000000E+00 -2.61209149E+00
Num ILSW                                   I              100
ILSW                                       I   N=         100
           0           0           0           0           2           0
           0           0           0           0        4639          -1
           5           0           0           0           2           0
           0           0           1           0           1           0
           1           0           0           0           0           0
           0           0      100000           0          -1           0
           0           0           0           0           0           0
           0           0           0           1           0           0
           0 -2000000000           1           0           0           0
           0           0         121          52           0           0
           0           0          58           0           0           0
           0           0           0           0           0           1
           0           0           0           0           0           0
           0           0           0           0           0           0
           0           0           0           0           0           0
           0           0           0           0           0           0
           0           0           0           0
Num RLSW                                   I               52
RLSW                                       R   N=          52
  1.00000000E+00  1.00000000E+00  1.00000000E+00  1.00000000E+00  1.00000000E+00
  0.00000000E+00  2.00000000E-01  2.22036000E-01  0.00000000E+00  7.77964000E-01
  0.00000000E+00  2.00000000E-01  0.00000000E+00  0.00000000E+00  1.00000000E+00
  0.00000000E+00  0.00000000E+00  1.00000000E+00  0.00000000E+00  0.00000000E+00
  0.00000000E+00  0.00000000E+00  1.00000000E+00  0.00000000E+00  0.00000000E+00
  0.00000000E+00  0.00000000E+00  1.00000000E+00  0.00000000E+00  0.00000000E+00
  0.00000000E+00  0.00000000E+00  1.00000000E+00  0.00000000E+00  0.00000000E+00
  0.00000000E+00  0.00000000E+00  0.00000000E+00  1.00000000E+00  1.00000000E+00
  0.00000000E+00  1.00000000E+00  0.00000000E+00  0.00000000E+00  0.00000000E+00
  0.00000000E+00  0.00000000E+00  0.00000000E+00  0.00000000E+00  0.00000000E+00
  0.00000000E+00  0.00000000E+00
MxBond                                     I                1
NBond                                      I   N=           2
           1           1
IBond                                      I   N=           2
           2           1
RBond                                      R   N=           2
  1.00000000E+00  1.00000000E+00
Virial Ratio                               R      2.001140160112992E+00
SCF Energy                                 R     -2.574783485377790E+03
Total Energy                               R     -2.574783485377790E+03
RMS Force                                  R      4.770747202700577E-07
RMS Density                                R      2.303167439525378E-10
NImag                                      I                0
Job Status                                 I                1
Nuclear derivative order                   I                2
PCM-NSphere                                I                2
PCM-NGenSphere                             I                2
PCM-NOrd                                   I   N=           2
           1           2
PCM-SphereRadii                            R   N=           2
  5.78256194E+00  2.26767135E+00
PCM-SphereLoc                              R   N=           6
  0.00000000E+00  0.00000000E+00  7.46311856E-02  0.00000000E+00  0.00000000E+00
 -2.61209149E+00
External E-field                           R   N=          35
  0.00000000E+00  0.00000000E+00  0.00000000E+00  0.00000000E+00  0.00000000E+00
  0.00000000E+00  0.00000000E+00  0.00000000E+00  0.00000000E+00  0.00000000E+00
  0.00000000E+00  0.00000000E+00  0.00000000E+00  0.00000000E+00  0.00000000E+00
  0.00000000E+00  0.00000000E+00  0.00000000E+00  0.00000000E+00  0.00000000E+00
  0.00000000E+00  0.00000000E+00  0.00000000E+00  0.00000000E+00  0.00000000E+00
  0.00000000E+00  0.00000000E+00  0.00000000E+00  0.00000000E+00  0.00000000E+00
  0.00000000E+00  0.00000000E+00  0.00000000E+00  0.00000000E+00  0.00000000E+00
IOpCl                                      I                0
IROHF                                      I                0
Alpha Orbital Energies                     R   N=          54
 -4.83114079E+02 -6.26655221E+01 -5.64609427E+01 -5.64573159E+01 -5.64573159E+01
 -8.82438391E+00 -6.64731638E+00 -6.63463356E+00 -6.63463356E+00 -2.74776415E+00
 -2.74370015E+00 -2.74370015E+00 -2.73362573E+00 -2.73362569E+00 -8.93848002E-01
 -5.29476556E-01 -3.91173997E-01 -3.91173997E-01  5.01615628E-02  9.15305569E-02
  9.67239239E-02  9.90885310E-02  9.90885310E-02  3.86248310E-01  4.79037138E-01
  4.79037138E-01  4.82712552E-01  5.94998623E-01  6.35340911E-01  6.35340911E-01
  6.97636074E-01  6.97636997E-01  9.34367252E-01  1.49626337E+00  1.49626337E+00
  2.00660609E+00  2.06976692E+00  2.06976692E+00  2.09982444E+00  2.54529168E+00
  4.23645667E+00  4.23646679E+00  4.27153022E+00  4.27153022E+00  4.41719889E+00
  6.62153750E+00  7.62666609E+00  7.62666609E+00  7.64470808E+00  4.79192068E+01
  2.89964984E+02  2.89964984E+02  2.90008787E+02  1.02087802E+03
Alpha MO coefficients                      R   N=        2916
  3.90055292E-01  6.74227284E-01  8.78914156E-03 -2.25430933E-03  1.10346465E-03
 -5.44070872E-04  1.79821072E-04 -9.12476495E-05  1.30323532E-05  0.00000000E+00
  0.00000000E+00  2.83719859E-06  0.00000000E+00  0.00000000E+00 -5.12586994E-06
  0.00000000E+00  0.00000000E+00 -2.58989250E-06  0.00000000E+00  0.00000000E+00
  2.02423445E-06  0.00000000E+00  0.00000000E+00 -5.98799436E-06  0.00000000E+00
  0.00000000E+00  1.31723255E-05  0.00000000E+00  0.00000000E+00 -2.52412508E-05
  0.00000000E+00  0.00000000E+00  1.30897471E-05  8.62700834E-07  0.00000000E+00
  0.00000000E+00  7.13576065E-19  0.00000000E+00 -2.62215792E-06  0.00000000E+00
  0.00000000E+00  1.07089298E-17  0.00000000E+00  1.08762181E-05  0.00000000E+00
  0.00000000E+00 -7.33486318E-18  0.00000000E+00  2.99833566E-06 -2.21737948E-05
  2.36403632E-05  0.00000000E+00  0.00000000E+00 -1.66809395E-05 -1.28796520E-01
 -3.76846476E-01  6.29382172E-01  4.97920506E-01  4.75904132E-02 -9.61439774E-03
  2.71599955E-03 -1.36930946E-03  1.95513923E-04  0.00000000E+00  0.00000000E+00
  4.41673741E-05  0.00000000E+00  0.00000000E+00 -1.00552000E-04  0.00000000E+00
  0.00000000E+00 -7.92470334E-04  0.00000000E+00  0.00000000E+00 -6.66811460E-05
  0.00000000E+00  0.00000000E+00 -9.57457698E-06  0.00000000E+00  0.00000000E+00
  1.37370713E-04  0.00000000E+00  0.00000000E+00 -3.50919174E-04  0.00000000E+00
  0.00000000E+00  1.83830798E-04  6.00982289E-05  0.00000000E+00  0.00000000E+00
  4.52144658E-18  0.00000000E+00 -5.49622729E-05  0.00000000E+00  0.00000000E+00
 -2.49922462E-17  0.00000000E+00  1.68611058E-04  0.00000000E+00  0.00000000E+00
  2.10245442E-17  0.00000000E+00  4.06302725E-05 -3.27584548E-04  3.47229820E-04
  0.00000000E+00  0.00000000E+00 -2.45669959E-04 -1.10931419E-04 -3.28236291E-04
  5.60039986E-04  4.30773934E-04  3.93992341E-05 -2.94526629E-05  2.77145943E-05
 -8.86755221E-05 -1.63582121E-04  0.00000000E+00  0.00000000E+00 -2.34005201E-04
  0.00000000E+00  0.00000000E+00  1.26647417E-01  0.00000000E+00  0.00000000E+00
  9.23885875E-01  0.00000000E+00  0.00000000E+00  3.20687407E-02  0.00000000E+00
  0.00000000E+00 -1.46511436E-02  0.00000000E+00  0.00000000E+00  9.04371797E-03
  0.00000000E+00  0.00000000E+00 -3.10164713E-03  0.00000000E+00  0.00000000E+00
  1.22990353E-03 -5.54078687E-05  0.00000000E+00  0.00000000E+00  2.85246568E-17
  0.00000000E+00  3.23088660E-06  0.00000000E+00  0.00000000E+00 -3.17203528E-17
  0.00000000E+00  3.94792263E-05  0.00000000E+00  0.00000000E+00  2.88060408E-18
  0.00000000E+00 -7.57081126E-05 -1.86449302E-04  4.41101867E-04  0.00000000E+00
  0.00000000E+00  1.55262875E-05  0.00000000E+00  0.00000000E+00  0.00000000E+00
  0.00000000E+00  0.00000000E+00  0.00000000E+00  0.00000000E+00  0.00000000E+00
  0.00000000E+00  0.00000000E+00 -3.16210859E-04  0.00000000E+00  0.00000000E+00
  1.26655832E-01  0.00000000E+00  0.00000000E+00  9.23909266E-01  0.00000000E+00
  0.00000000E+00  3.19872181E-02  0.00000000E+00  0.00000000E+00 -1.45090309E-02
  0.00000000E+00  0.00000000E+00  8.85824563E-03  0.00000000E+00  0.00000000E+00
 -2.93675212E-03  0.00000000E+00  0.00000000E+00  1.07689334E-03  0.00000000E+00
  0.00000000E+00  0.00000000E+00 -5.88606079E-05  0.00000000E+00  0.00000000E+00
  0.00000000E+00  0.00000000E+00  1.79817399E-05  0.00000000E+00  0.00000000E+00
  0.00000000E+00  0.00000000E+00  3.37899424E-06  0.00000000E+00  0.00000000E+00
  0.00000000E+00  0.00000000E+00  0.00000000E+00  0.00000000E+00  3.44496734E-05
  0.00000000E+00  0.00000000E+00  0.00000000E+00  0.00000000E+00  0.00000000E+00
  0.00000000E+00  0.00000000E+00  0.00000000E+00  0.00000000E+00  0.00000000E+00
 -3.16210859E-04  0.00000000E+00  0.00000000E+00  1.26655832E-01  0.00000000E+00
  0.00000000E+00  9.23909266E-01  0.00000000E+00  0.00000000E+00  3.19872181E-02
  0.00000000E+00  0.00000000E+00 -1.45090309E-02  0.00000000E+00  0.00000000E+00
  8.85824563E-03  0.00000000E+00  0.00000000E+00 -2.93675212E-03  0.00000000E+00
  0.00000000E+00  1.07689334E-03  0.00000000E+00  0.00000000E+00  0.00000000E+00
 -5.88606079E-05  0.00000000E+00  0.00000000E+00  0.00000000E+00  0.00000000E+00
  1.79817399E-05  0.00000000E+00  0.00000000E+00  0.00000000E+00  0.00000000E+00
  3.37899424E-06  0.00000000E+00  0.00000000E+00  0.00000000E+00  0.00000000E+00
  0.00000000E+00  0.00000000E+00  3.44496734E-05  0.00000000E+00  0.00000000E+00
  5.14597385E-02  1.64791375E-01 -4.22071135E-01 -4.54808416E-01  6.60288671E-01
  6.32337049E-01  3.25173551E-02 -1.03807575E-02  1.44531713E-03  0.00000000E+00
  0.00000000E+00  2.41871220E-04  0.00000000E+00  0.00000000E+00  2.37884895E-04
  0.00000000E+00  0.00000000E+00  1.95336350E-03  0.00000000E+00  0.00000000E+00
 -3.81142367E-03  0.00000000E+00  0.00000000E+00 -2.19073084E-03  0.00000000E+00
  0.00000000E+00  1.00123410E-03  0.00000000E+00  0.00000000E+00 -1.76912547E-03
  0.00000000E+00  0.00000000E+00  1.15592775E-03  1.04845708E-03  0.00000000E+00
  0.00000000E+00 -4.29922658E-16  0.00000000E+00  7.89480474E-04  0.00000000E+00
  0.00000000E+00  8.41190830E-17  0.00000000E+00  5.29874762E-04  0.00000000E+00
  0.00000000E+00 -8.78035293E-17  0.00000000E+00  6.63265306E-05 -1.20330234E-03
  1.97357263E-03  0.00000000E+00  0.00000000E+00 -9.19739213E-04  2.70135795E-04
  8.68027160E-04 -2.24525309E-03 -2.53409810E-03  4.36258599E-03  2.42551098E-03
 -2.01838780E-04  3.71937829E-04 -1.21753157E-04  0.00000000E+00  0.00000000E+00
  1.65060400E-05  0.00000000E+00  0.00000000E+00 -5.23454093E-02  0.00000000E+00
  0.00000000E+00 -4.23164876E-01  0.00000000E+00  0.00000000E+00  8.78723996E-01
  0.00000000E+00  0.00000000E+00  2.48596182E-01  0.00000000E+00  0.00000000E+00
  3.11043742E-02  0.00000000E+00  0.00000000E+00  1.10628105E-03  0.00000000E+00
  0.00000000E+00  4.48582783E-06 -1.75591021E-03  0.00000000E+00  0.00000000E+00
 -7.20245871E-17  0.00000000E+00 -9.52117798E-04  0.00000000E+00  0.00000000E+00
 -5.57725903E-17  0.00000000E+00  2.99206699E-04  0.00000000E+00  0.00000000E+00
  1.73348505E-16  0.00000000E+00 -2.17824736E-04 -5.83417045E-04  1.69909605E-04
  0.00000000E+00  0.00000000E+00 -5.55301878E-04  0.00000000E+00  0.00000000E+00
  0.00000000E+00  0.00000000E+00  0.00000000E+00  0.00000000E+00  0.00000000E+00
  0.00000000E+00  0.00000000E+00  0.00000000E+00  1.50792069E-06  0.00000000E+00
  0.00000000E+00 -5.23899578E-02  0.00000000E+00  0.00000000E+00 -4.23511679E-01
  0.00000000E+00  0.00000000E+00  8.79925899E-01  0.00000000E+00  0.00000000E+00
  2.47867615E-01  0.00000000E+00  0.00000000E+00  3.02908162E-02  0.00000000E+00
  0.00000000E+00  1.64119853E-03  0.00000000E+00  0.00000000E+00 -7.17450121E-05
  0.00000000E+00  0.00000000E+00  0.00000000E+00 -1.62944622E-03  0.00000000E+00
  0.00000000E+00  0.00000000E+00  0.00000000E+00 -9.83641455E-04  0.00000000E+00
  0.00000000E+00  0.00000000E+00  0.00000000E+00  8.05698101E-05  0.00000000E+00
  0.00000000E+00  0.00000000E+00  0.00000000E+00  0.00000000E+00  0.00000000E+00
  8.10110489E-05  0.00000000E+00  0.00000000E+00  0.00000000E+00  0.00000000E+00
  0.00000000E+00  0.00000000E+00  0.00000000E+00  0.00000000E+00  0.00000000E+00
  0.00000000E+00  1.50792069E-06  0.00000000E+00  0.00000000E+00 -5.23899578E-02
  0.00000000E+00  0.00000000E+00 -4.23511679E-01  0.00000000E+00  0.00000000E+00
  8.79925899E-01  0.00000000E+00  0.00000000E+00  2.47867615E-01  0.00000000E+00
  0.00000000E+00  3.02908162E-02  0.00000000E+00  0.00000000E+00  1.64119853E-03
  0.00000000E+00  0.00000000E+00 -7.17450121E-05  0.00000000E+00  0.00000000E+00
  0.00000000E+00 -1.62944622E-03  0.00000000E+00  0.00000000E+00  0.00000000E+00
  0.00000000E+00 -9.83641455E-04  0.00000000E+00  0.00000000E+00  0.00000000E+00
  0.00000000E+00  8.05698101E-05  0.00000000E+00  0.00000000E+00  0.00000000E+00
  0.00000000E+00  0.00000000E+00  0.00000000E+00  8.10110489E-05  0.00000000E+00
  0.00000000E+00 -1.58453537E-04 -5.05891961E-04  1.28802257E-03  1.87828228E-03
 -3.91135837E-03 -1.34517572E-03  2.82663969E-03  1.63008091E-03  6.90447074E-04
  0.00000000E+00  0.00000000E+00  1.88381466E-04  0.00000000E+00  0.00000000E+00
 -1.50934197E-04  0.00000000E+00  0.00000000E+00 -1.23300572E-03  0.00000000E+00
  0.00000000E+00  2.80863013E-03  0.00000000E+00  0.00000000E+00  6.61166675E-04
  0.00000000E+00  0.00000000E+00 -3.66139298E-04  0.00000000E+00  0.00000000E+00
 -6.55490249E-04  0.00000000E+00  0.00000000E+00 -2.70418129E-03  8.08526102E-01
  0.00000000E+00  0.00000000E+00  8.19259213E-14  0.00000000E+00  3.01623356E-01
  0.00000000E+00  0.00000000E+00  3.07300214E-14  0.00000000E+00  4.38056172E-02
  0.00000000E+00  0.00000000E+00  4.15244033E-15  0.00000000E+00  2.66110495E-03
 -2.03769394E-03 -1.10076747E-03  0.00000000E+00  0.00000000E+00  1.88958156E-03
  0.00000000E+00  0.00000000E+00  0.00000000E+00  0.00000000E+00  0.00000000E+00
  0.00000000E+00  0.00000000E+00  0.00000000E+00  0.00000000E+00  0.00000000E+00
 -5.39955988E-06  0.00000000E+00  0.00000000E+00 -1.42269329E-04  0.00000000E+00
  0.00000000E+00 -1.17104894E-03  0.00000000E+00  0.00000000E+00  2.79852870E-03
  0.00000000E+00  0.00000000E+00  1.33423175E-05  0.00000000E+00  0.00000000E+00
 -9.97302903E-05  0.00000000E+00  0.00000000E+00 -6.00793225E-04  0.00000000E+00
  0.00000000E+00  1.83617994E-05  0.00000000E+00  0.00000000E+00  0.00000000E+00
  8.09060239E-01  0.00000000E+00  0.00000000E+00  0.00000000E+00  0.00000000E+00
  3.01585920E-01  0.00000000E+00  0.00000000E+00  0.00000000E+00  0.00000000E+00
  4.25979017E-02  0.00000000E+00  0.00000000E+00  0.00000000E+00  0.00000000E+00
  0.00000000E+00  0.00000000E+00  4.14251835E-04  0.00000000E+00  0.00000000E+00
  0.00000000E+00  0.00000000E+00  0.00000000E+00  0.00000000E+00  0.00000000E+00
  0.00000000E+00  0.00000000E+00  0.00000000E+00 -5.39955988E-06  0.00000000E+00
  0.00000000E+00 -1.42269329E-04  0.00000000E+00  0.00000000E+00 -1.17104894E-03
  0.00000000E+00  0.00000000E+00  2.79852870E-03  0.00000000E+00  0.00000000E+00
  1.33423175E-05  0.00000000E+00  0.00000000E+00 -9.97302903E-05  0.00000000E+00
  0.00000000E+00 -6.00793225E-04  0.00000000E+00  0.00000000E+00  1.83617994E-05
  0.00000000E+00  0.00000000E+00  0.00000000E+00  8.09060239E-01  0.00000000E+00
  0.00000000E+00  0.00000000E+00  0.00000000E+00  3.01585920E-01  0.00000000E+00
  0.00000000E+00  0.00000000E+00  0.00000000E+00  4.25979017E-02  0.00000000E+00
  0.00000000E+00  0.00000000E+00  0.00000000E+00  0.00000000E+00  0.00000000E+00
  4.14251835E-04  0.00000000E+00  0.00000000E+00  2.23712126E-17  7.82620603E-17
 -3.60764482E-16  4.78735885E-16 -1.51312394E-15  2.57640567E-15 -2.03939905E-15
  1.37245941E-15 -2.56134208E-16  0.00000000E+00  0.00000000E+00  5.80762516E-16
  0.00000000E+00  0.00000000E+00  1.26158861E-17  0.00000000E+00  0.00000000E+00
  2.24598881E-16  0.00000000E+00  0.00000000E+00 -8.74901418E-16  0.00000000E+00
  0.00000000E+00  2.72064409E-15  0.00000000E+00  0.00000000E+00 -3.86840587E-15
  0.00000000E+00  0.00000000E+00  2.73931129E-15  0.00000000E+00  0.00000000E+00
 -1.68332057E-15 -8.19712678E-14  0.00000000E+00  0.00000000E+00  8.09829973E-01
  0.00000000E+00 -3.07812244E-14  0.00000000E+00  0.00000000E+00  3.00784088E-01
  0.00000000E+00 -4.37567137E-15  0.00000000E+00  0.00000000E+00  4.19836452E-02
  0.00000000E+00 -9.19586752E-17  4.95332240E-16 -5.08447286E-16  0.00000000E+00
  0.00000000E+00 -8.74269103E-17  0.00000000E+00  0.00000000E+00  0.00000000E+00
  0.00000000E+00  0.00000000E+00  0.00000000E+00  0.00000000E+00  0.00000000E+00
  0.00000000E+00  0.00000000E+00  0.00000000E+00  0.00000000E+00  0.00000000E+00
  0.00000000E+00  0.00000000E+00  0.00000000E+00  0.00000000E+00  0.00000000E+00
  0.00000000E+00  0.00000000E+00  0.00000000E+00  0.00000000E+00  0.00000000E+00
  0.00000000E+00  0.00000000E+00  0.00000000E+00  0.00000000E+00  0.00000000E+00
  0.00000000E+00  0.00000000E+00  0.00000000E+00  0.00000000E+00  0.00000000E+00
  0.00000000E+00  0.00000000E+00  0.00000000E+00  0.00000000E+00  8.09829653E-01
  0.00000000E+00  0.00000000E+00  0.00000000E+00  0.00000000E+00  3.00784502E-01
  0.00000000E+00  0.00000000E+00  0.00000000E+00  0.00000000E+00  4.19836886E-02
  0.00000000E+00  0.00000000E+00  0.00000000E+00  0.00000000E+00  0.00000000E+00
  0.00000000E+00 -1.56117239E-02 -5.05448788E-02  1.36592686E-01  1.66131587E-01
 -3.25632657E-01 -4.16739386E-01  7.67125279E-01  3.62168174E-01  5.54267159E-03
  0.00000000E+00  0.00000000E+00 -2.32026351E-03  0.00000000E+00  0.00000000E+00
 -1.83712327E-03  0.00000000E+00  0.00000000E+00 -1.51132742E-02  0.00000000E+00
  0.00000000E+00  3.84593101E-02  0.00000000E+00  0.00000000E+00  1.74823766E-02
  0.00000000E+00  0.00000000E+00 -3.45899934E-02  0.00000000E+00  0.00000000E+00
 -5.69510522E-02  0.00000000E+00  0.00000000E+00 -9.63400321E-03 -1.85334584E-02
  0.00000000E+00  0.00000000E+00  3.52756180E-16  0.00000000E+00 -1.23834482E-03
  0.00000000E+00  0.00000000E+00 -3.55864052E-16  0.00000000E+00  1.94379835E-02
  0.00000000E+00  0.00000000E+00 -8.21385520E-16  0.00000000E+00  8.26380406E-02
  1.11514171E-01 -4.96352362E-05  0.00000000E+00  0.00000000E+00  2.06849472E-02
 -4.85597070E-03 -1.57207219E-02  4.24978089E-02  5.25470890E-02 -1.05162760E-01
 -1.31487357E-01  2.46385319E-01  2.27195447E-01  1.49821548E-02  0.00000000E+00
  0.00000000E+00 -3.85775650E-05  0.00000000E+00  0.00000000E+00  1.13145904E-02
  0.00000000E+00  0.00000000E+00  9.32981575E-02  0.00000000E+00  0.00000000E+00
 -2.41844532E-01  0.00000000E+00  0.00000000E+00 -9.59573261E-02  0.00000000E+00
  0.00000000E+00  2.06536057E-01  0.00000000E+00  0.00000000E+00  4.24680380E-01
  0.00000000E+00  0.00000000E+00  1.63752772E-01  3.40088746E-02  0.00000000E+00
  0.00000000E+00  3.11923352E-16  0.00000000E+00  1.62732311E-03  0.00000000E+00
  0.00000000E+00  3.44442875E-17  0.00000000E+00 -3.81932739E-02  0.00000000E+00
  0.00000000E+00 -4.37858347E-16  0.00000000E+00 -1.59279684E-01 -2.99435197E-01
 -9.13213029E-02  0.00000000E+00  0.00000000E+00 -3.02015107E-02  0.00000000E+00
  0.00000000E+00  0.00000000E+00  0.00000000E+00  0.00000000E+00  0.00000000E+00
  0.00000000E+00  0.00000000E+00  0.00000000E+00  0.00000000E+00  1.82293181E-02
  0.00000000E+00  0.00000000E+00  1.39556779E-02  0.00000000E+00  0.00000000E+00
  1.15195661E-01  0.00000000E+00  0.00000000E+00 -3.00704539E-01  0.00000000E+00
  0.00000000E+00 -1.12728906E-01  0.00000000E+00  0.00000000E+00  2.47805186E-01
  0.00000000E+00  0.00000000E+00  5.83532803E-01  0.00000000E+00  0.00000000E+00
  3.60557047E-01  0.00000000E+00  0.00000000E+00  0.00000000E+00  5.74777980E-03
  0.00000000E+00  0.00000000E+00  0.00000000E+00  0.00000000E+00  1.58970983E-03
  0.00000000E+00  0.00000000E+00  0.00000000E+00  0.00000000E+00 -1.78943691E-02
  0.00000000E+00  0.00000000E+00  0.00000000E+00  0.00000000E+00  0.00000000E+00
  0.00000000E+00  2.14438749E-02  0.00000000E+00  0.00000000E+00  0.00000000E+00
  0.00000000E+00  0.00000000E+00  0.00000000E+00  0.00000000E+00  0.00000000E+00
  0.00000000E+00  0.00000000E+00  1.82293181E-02  0.00000000E+00  0.00000000E+00
  1.39556779E-02  0.00000000E+00  0.00000000E+00  1.15195661E-01  0.00000000E+00
  0.00000000E+00 -3.00704539E-01  0.00000000E+00  0.00000000E+00 -1.12728906E-01
  0.00000000E+00  0.00000000E+00  2.47805186E-01  0.00000000E+00  0.00000000E+00
  5.83532803E-01  0.00000000E+00  0.00000000E+00  3.60557047E-01  0.00000000E+00
  0.00000000E+00  0.00000000E+00  5.74777980E-03  0.00000000E+00  0.00000000E+00
  0.00000000E+00  0.00000000E+00  1.58970983E-03  0.00000000E+00  0.00000000E+00
  0.00000000E+00  0.00000000E+00 -1.78943691E-02  0.00000000E+00  0.00000000E+00
  0.00000000E+00  0.00000000E+00  0.00000000E+00  0.00000000E+00  2.14438749E-02
  0.00000000E+00  0.00000000E+00  5.24653079E-03  1.69271091E-02 -4.52261013E-02
 -6.00282698E-02  1.25214436E-01  1.29878783E-01 -2.18859792E-01 -8.06634948E-01
  9.22475141E-01  0.00000000E+00  0.00000000E+00 -1.26823227E-01  0.00000000E+00
  0.00000000E+00  5.31556567E-03  0.00000000E+00  0.00000000E+00  4.39764485E-02
  0.00000000E+00  0.00000000E+00 -1.16029366E-01  0.00000000E+00  0.00000000E+00
 -3.91819298E-02  0.00000000E+00  0.00000000E+00  8.86968600E-02  0.00000000E+00
  0.00000000E+00  2.67750163E-01  0.00000000E+00  0.00000000E+00  4.09542940E-01
 -2.88987780E-02  0.00000000E+00  0.00000000E+00  7.44208049E-17  0.00000000E+00
 -6.20786304E-04  0.00000000E+00  0.00000000E+00  1.30149378E-16  0.00000000E+00
  3.46252237E-02  0.00000000E+00  0.00000000E+00 -3.57212653E-17  0.00000000E+00
  7.84376963E-02  2.91696357E-01  4.47871405E-01  0.00000000E+00  0.00000000E+00
 -1.06942142E-02  1.33257422E-03  4.29327351E-03 -1.14112145E-02 -1.55488035E-02
  3.29361270E-02  3.06789922E-02 -3.92300909E-02 -2.87082889E-01 -4.43114156E-01
  0.00000000E+00  0.00000000E+00  1.31398688E+00  0.00000000E+00  0.00000000E+00
 -8.76932421E-05  0.00000000E+00  0.00000000E+00 -4.91935775E-04  0.00000000E+00
  0.00000000E+00 -2.27359647E-04  0.00000000E+00  0.00000000E+00  2.00445677E-02
  0.00000000E+00  0.00000000E+00 -4.63401693E-02  0.00000000E+00  0.00000000E+00
  7.09187053E-02  0.00000000E+00  0.00000000E+00 -9.00080932E-03 -3.65026363E-02
  0.00000000E+00  0.00000000E+00 -4.16295547E-16  0.00000000E+00 -3.52622426E-03
  0.00000000E+00  0.00000000E+00  1.16337635E-16  0.00000000E+00  7.04164494E-02
  0.00000000E+00  0.00000000E+00  5.42211557E-16  0.00000000E+00  8.33881384E-02
  9.43493408E-02  8.75452786E-01  0.00000000E+00  0.00000000E+00  1.70850296E-02
  7.01018200E-05  2.20402895E-04 -5.31004352E-04 -1.03470055E-03  2.53305444E-03
 -8.27168157E-04  3.05655480E-02 -1.57523352E-01 -1.33027929E+00  0.00000000E+00
  0.00000000E+00 -2.15741285E-01  0.00000000E+00  0.00000000E+00  6.53565384E-03
  0.00000000E+00  0.00000000E+00  5.37891832E-02  0.00000000E+00  0.00000000E+00
 -1.40218300E-01  0.00000000E+00  0.00000000E+00 -7.23962298E-02  0.00000000E+00
  0.00000000E+00  1.68949708E-01  0.00000000E+00  0.00000000E+00  2.04219130E-01
  0.00000000E+00  0.00000000E+00  9.67692967E-01 -5.65909238E-02  0.00000000E+00
  0.00000000E+00  4.63638951E-17  0.00000000E+00 -4.42468361E-03  0.00000000E+00
  0.00000000E+00  2.47728704E-16  0.00000000E+00  1.00937113E-01  0.00000000E+00
  0.00000000E+00 -3.32647669E-16  0.00000000E+00  1.13574341E-01  2.68470564E-01
  1.36237076E+00  0.00000000E+00  0.00000000E+00 -1.31559010E-02  0.00000000E+00
  0.00000000E+00  0.00000000E+00  0.00000000E+00  0.00000000E+00  0.00000000E+00
  0.00000000E+00  0.00000000E+00  0.00000000E+00  0.00000000E+00  1.27060584E+00
  0.00000000E+00  0.00000000E+00 -3.60255664E-03  0.00000000E+00  0.00000000E+00
 -2.93970549E-02  0.00000000E+00  0.00000000E+00  7.50460993E-02  0.00000000E+00
  0.00000000E+00  6.00786332E-02  0.00000000E+00  0.00000000E+00 -1.38586758E-01
  0.00000000E+00  0.00000000E+00 -3.61799718E-02  0.00000000E+00  0.00000000E+00
 -5.42254367E-01  0.00000000E+00  0.00000000E+00  0.00000000E+00 -1.27257922E-03
  0.00000000E+00  0.00000000E+00  0.00000000E+00  0.00000000E+00 -3.21879000E-04
  0.00000000E+00  0.00000000E+00  0.00000000E+00  0.00000000E+00  4.66099997E-03
  0.00000000E+00  0.00000000E+00  0.00000000E+00  0.00000000E+00  0.00000000E+00
  0.00000000E+00  2.22093574E-03  0.00000000E+00  0.00000000E+00  0.00000000E+00
  0.00000000E+00  0.00000000E+00  0.00000000E+00  0.00000000E+00  0.00000000E+00
  0.00000000E+00  0.00000000E+00  1.27060584E+00  0.00000000E+00  0.00000000E+00
 -3.60255664E-03  0.00000000E+00  0.00000000E+00 -2.93970549E-02  0.00000000E+00
  0.00000000E+00  7.50460993E-02  0.00000000E+00  0.00000000E+00  6.00786332E-02
  0.00000000E+00  0.00000000E+00 -1.38586758E-01  0.00000000E+00  0.00000000E+00
 -3.61799718E-02  0.00000000E+00  0.00000000E+00 -5.42254367E-01  0.00000000E+00
  0.00000000E+00  0.00000000E+00 -1.27257922E-03  0.00000000E+00  0.00000000E+00
  0.00000000E+00  0.00000000E+00 -3.21879000E-04  0.00000000E+00  0.00000000E+00
  0.00000000E+00  0.00000000E+00  4.66099997E-03  0.00000000E+00  0.00000000E+00
  0.00000000E+00  0.00000000E+00  0.00000000E+00  0.00000000E+00  2.22093574E-03
  0.00000000E+00  0.00000000E+00  4.38205741E-04  1.46898342E-03 -4.47163921E-03
 -2.65477476E-03  2.06848153E-03  3.16610157E-02 -2.02679862E-01 -2.82011623E-02
 -9.60673574E-01  0.00000000E+00  0.00000000E+00  9.41914467E-01  0.00000000E+00
  0.00000000E+00  1.97276164E-03  0.00000000E+00  0.00000000E+00  1.66069404E-02
  0.00000000E+00  0.00000000E+00 -4.62045258E-02  0.00000000E+00  0.00000000E+00
  3.63244929E-03  0.00000000E+00  0.00000000E+00  3.72566771E-03  0.00000000E+00
  0.00000000E+00  2.63410901E-01  0.00000000E+00  0.00000000E+00 -5.73172252E-01
  9.25408195E-02  0.00000000E+00  0.00000000E+00 -7.74707676E-17  0.00000000E+00
  1.10987315E-04  0.00000000E+00  0.00000000E+00  2.90630482E-17  0.00000000E+00
 -1.71668725E-01  0.00000000E+00  0.00000000E+00  5.13298925E-16  0.00000000E+00
 -8.34592756E-02 -1.27493077E+00  2.40181899E+00  0.00000000E+00  0.00000000E+00
 -6.79458490E-02  0.00000000E+00  0.00000000E+00  0.00000000E+00  0.00000000E+00
  0.00000000E+00  0.00000000E+00  0.00000000E+00  0.00000000E+00  0.00000000E+00
 -8.17020562E-01  0.00000000E+00  0.00000000E+00 -1.08441518E-02  0.00000000E+00
  0.00000000E+00 -9.15198323E-02  0.00000000E+00  0.00000000E+00  2.56753182E-01
  0.00000000E+00  0.00000000E+00 -5.65173022E-02  0.00000000E+00  0.00000000E+00
  1.15887083E-01  0.00000000E+00  0.00000000E+00 -1.45924577E+00  0.00000000E+00
  0.00000000E+00  2.01199994E+00  0.00000000E+00  0.00000000E+00  0.00000000E+00
 -3.11358975E-03  0.00000000E+00  0.00000000E+00  0.00000000E+00  0.00000000E+00
  5.31788175E-04  0.00000000E+00  0.00000000E+00  0.00000000E+00  0.00000000E+00
  8.38734499E-03  0.00000000E+00  0.00000000E+00  0.00000000E+00  0.00000000E+00
  0.00000000E+00  0.00000000E+00  5.71212156E-03  0.00000000E+00  0.00000000E+00
  0.00000000E+00  0.00000000E+00  0.00000000E+00  0.00000000E+00  0.00000000E+00
  0.00000000E+00  0.00000000E+00  0.00000000E+00  0.00000000E+00  0.00000000E+00
 -8.17020562E-01  0.00000000E+00  0.00000000E+00 -1.08441518E-02  0.00000000E+00
  0.00000000E+00 -9.15198323E-02  0.00000000E+00  0.00000000E+00  2.56753182E-01
  0.00000000E+00  0.00000000E+00 -5.65173022E-02  0.00000000E+00  0.00000000E+00
  1.15887083E-01  0.00000000E+00  0.00000000E+00 -1.45924577E+00  0.00000000E+00
  0.00000000E+00  2.01199994E+00  0.00000000E+00  0.00000000E+00  0.00000000E+00
 -3.11358975E-03  0.00000000E+00  0.00000000E+00  0.00000000E+00  0.00000000E+00
  5.31788175E-04  0.00000000E+00  0.00000000E+00  0.00000000E+00  0.00000000E+00
  8.38734499E-03  0.00000000E+00  0.00000000E+00  0.00000000E+00  0.00000000E+00
  0.00000000E+00  0.00000000E+00  5.71212156E-03  0.00000000E+00  1.02892928E-03
  3.33628562E-03 -9.08318512E-03 -1.12750376E-02  2.29186878E-02  3.30708111E-02
 -1.30894000E-01 -2.69957313E-01 -8.03533668E-01  0.00000000E+00  0.00000000E+00
 -2.93873432E-01  0.00000000E+00  0.00000000E+00 -1.11400598E-02  0.00000000E+00
  0.00000000E+00 -9.39428115E-02  0.00000000E+00  0.00000000E+00  2.62930410E-01
  0.00000000E+00  0.00000000E+00 -5.37782088E-02  0.00000000E+00  0.00000000E+00
  1.19543585E-01  0.00000000E+00  0.00000000E+00 -1.51377965E+00  0.00000000E+00
  0.00000000E+00  2.31444116E+00  2.16099681E-02  0.00000000E+00  0.00000000E+00
 -5.01826592E-16  0.00000000E+00 -2.24464870E-03  0.00000000E+00  0.00000000E+00
 -2.81605314E-16  0.00000000E+00 -2.53139338E-02  0.00000000E+00  0.00000000E+00
  1.50434197E-15  0.00000000E+00 -8.95774866E-02 -6.84755589E-01  2.06863369E+00
  0.00000000E+00  0.00000000E+00 -1.55055743E-02  1.28979588E-02  4.25688797E-02
 -1.23226641E-01 -1.09226507E-01  1.77099507E-01  6.53372802E-01 -2.56045862E+00
  3.13421073E+00 -5.32836837E-01  0.00000000E+00  0.00000000E+00 -2.16011730E-01
  0.00000000E+00  0.00000000E+00  1.12048811E-03  0.00000000E+00  0.00000000E+00
  9.00989478E-03  0.00000000E+00  0.00000000E+00 -2.22366496E-02  0.00000000E+00
  0.00000000E+00 -3.69290507E-02  0.00000000E+00  0.00000000E+00  9.71109942E-02
  0.00000000E+00  0.00000000E+00 -3.46494561E-02  0.00000000E+00  0.00000000E+00
 -3.66249040E-01  3.31341507E-02  0.00000000E+00  0.00000000E+00  4.86306436E-16
  0.00000000E+00 -7.87683336E-03  0.00000000E+00  0.00000000E+00  4.76108576E-16
  0.00000000E+00 -4.51243785E-02  0.00000000E+00  0.00000000E+00 -1.89366227E-15
  0.00000000E+00  6.39150112E-02  9.95180473E-02 -1.07322094E+00  0.00000000E+00
  0.00000000E+00 -9.09902984E-02  0.00000000E+00  0.00000000E+00  0.00000000E+00
  0.00000000E+00  0.00000000E+00  0.00000000E+00  0.00000000E+00  0.00000000E+00
  0.00000000E+00 -1.04063853E-02  0.00000000E+00  0.00000000E+00  6.96364130E-04
  0.00000000E+00  0.00000000E+00  5.81354013E-03  0.00000000E+00  0.00000000E+00
 -1.59137415E-02  0.00000000E+00  0.00000000E+00 -2.39721423E-03  0.00000000E+00
  0.00000000E+00  9.93814710E-03  0.00000000E+00  0.00000000E+00  2.89718952E-02
  0.00000000E+00  0.00000000E+00  4.10007685E-02  0.00000000E+00  0.00000000E+00
  0.00000000E+00 -2.47187371E-01  0.00000000E+00  0.00000000E+00  0.00000000E+00
  0.00000000E+00 -5.99646636E-02  0.00000000E+00  0.00000000E+00  0.00000000E+00
  0.00000000E+00  9.38287777E-01  0.00000000E+00  0.00000000E+00  0.00000000E+00
  0.00000000E+00  0.00000000E+00  0.00000000E+00 -2.11819974E-01  0.00000000E+00
  0.00000000E+00  0.00000000E+00  0.00000000E+00  0.00000000E+00  0.00000000E+00
  0.00000000E+00  0.00000000E+00  0.00000000E+00  0.00000000E+00  0.00000000E+00
  0.00000000E+00 -1.04063853E-02  0.00000000E+00  0.00000000E+00  6.96364130E-04
  0.00000000E+00  0.00000000E+00  5.81354013E-03  0.00000000E+00  0.00000000E+00
 -1.59137415E-02  0.00000000E+00  0.00000000E+00 -2.39721423E-03  0.00000000E+00
  0.00000000E+00  9.93814710E-03  0.00000000E+00  0.00000000E+00  2.89718952E-02
  0.00000000E+00  0.00000000E+00  4.10007685E-02  0.00000000E+00  0.00000000E+00
  0.00000000E+00 -2.47187371E-01  0.00000000E+00  0.00000000E+00  0.00000000E+00
  0.00000000E+00 -5.99646636E-02  0.00000000E+00  0.00000000E+00  0.00000000E+00
  0.00000000E+00  9.38287777E-01  0.00000000E+00  0.00000000E+00  0.00000000E+00
  0.00000000E+00  0.00000000E+00  0.00000000E+00 -2.11819974E-01  0.00000000E+00
 -2.00941735E-18 -5.55818601E-18  4.59128952E-17 -1.67875603E-16  6.54009544E-16
 -8.18702765E-16 -1.73287363E-15  6.05457580E-15  9.24161256E-16  0.00000000E+00
  0.00000000E+00 -1.50964681E-15  0.00000000E+00  0.00000000E+00  5.32553695E-17
  0.00000000E+00  0.00000000E+00  4.35232373E-16  0.00000000E+00  0.00000000E+00
 -1.10850223E-15  0.00000000E+00  0.00000000E+00 -2.24950751E-16  0.00000000E+00
  0.00000000E+00  1.01915036E-15  0.00000000E+00  0.00000000E+00  8.33279618E-16
  0.00000000E+00  0.00000000E+00 -3.53609340E-15 -2.41851957E-16  0.00000000E+00
  0.00000000E+00 -2.61188947E-01  0.00000000E+00 -2.97568700E-16  0.00000000E+00
  0.00000000E+00 -6.40547432E-02  0.00000000E+00  1.36397892E-15  0.00000000E+00
  0.00000000E+00  1.01907049E+00  0.00000000E+00  8.12829965E-16 -2.41769016E-16
 -5.80072941E-15  0.00000000E+00  0.00000000E+00 -9.61098652E-16  0.00000000E+00
  0.00000000E+00  0.00000000E+00  0.00000000E+00  0.00000000E+00  0.00000000E+00
  0.00000000E+00  0.00000000E+00  0.00000000E+00  0.00000000E+00  0.00000000E+00
  0.00000000E+00  0.00000000E+00  0.00000000E+00  0.00000000E+00  0.00000000E+00
  0.00000000E+00  0.00000000E+00  0.00000000E+00  0.00000000E+00  0.00000000E+00
  0.00000000E+00  0.00000000E+00  0.00000000E+00  0.00000000E+00  0.00000000E+00
  0.00000000E+00  0.00000000E+00  0.00000000E+00  0.00000000E+00  0.00000000E+00
  0.00000000E+00  0.00000000E+00  0.00000000E+00  0.00000000E+00  0.00000000E+00
  0.00000000E+00 -2.61189983E-01  0.00000000E+00  0.00000000E+00  0.00000000E+00
  0.00000000E+00 -6.40534073E-02  0.00000000E+00  0.00000000E+00  0.00000000E+00
  0.00000000E+00  1.01906979E+00  0.00000000E+00  0.00000000E+00  0.00000000E+00
  0.00000000E+00  0.00000000E+00  0.00000000E+00 -1.87292367E-03 -6.21879504E-03
  1.83721039E-02  1.45035745E-02 -2.09970942E-02 -1.11059245E-01  5.64372168E-01
 -8.23929786E-01  2.45130308E-01  0.00000000E+00  0.00000000E+00 -2.52684143E-01
  0.00000000E+00  0.00000000E+00  8.18936729E-04  0.00000000E+00  0.00000000E+00
  6.52606337E-03  0.00000000E+00  0.00000000E+00 -1.60630812E-02  0.00000000E+00
  0.00000000E+00 -2.83811975E-02  0.00000000E+00  0.00000000E+00  6.62929124E-02
  0.00000000E+00  0.00000000E+00 -4.06548555E-02  0.00000000E+00  0.00000000E+00
  6.65629681E-01  2.49594929E-01  0.00000000E+00  0.00000000E+00 -2.18243750E-16
  0.00000000E+00  5.05101811E-02  0.00000000E+00  0.00000000E+00 -2.20315773E-16
  0.00000000E+00 -1.09304186E+00  0.00000000E+00  0.00000000E+00  7.68668536E-16
  0.00000000E+00  3.84083759E-02  1.26147223E+00 -5.34016904E-01  0.00000000E+00
  0.00000000E+00 -8.64106536E-02  0.00000000E+00  0.00000000E+00  0.00000000E+00
  0.00000000E+00  0.00000000E+00  0.00000000E+00  0.00000000E+00  0.00000000E+00
  0.00000000E+00  7.24292256E-02  0.00000000E+00  0.00000000E+00 -2.05176710E-03
  0.00000000E+00  0.00000000E+00 -1.66404156E-02  0.00000000E+00  0.00000000E+00
  4.33684443E-02  0.00000000E+00  0.00000000E+00  5.74698492E-02  0.00000000E+00
  0.00000000E+00 -1.61615257E-01  0.00000000E+00  0.00000000E+00  9.34928983E-02
  0.00000000E+00  0.00000000E+00 -2.71846334E-01  0.00000000E+00  0.00000000E+00
  0.00000000E+00 -1.16028803E-01  0.00000000E+00  0.00000000E+00  0.00000000E+00
  0.00000000E+00  3.05513850E-03  0.00000000E+00  0.00000000E+00  0.00000000E+00
  0.00000000E+00  4.80145804E-01  0.00000000E+00  0.00000000E+00  0.00000000E+00
  0.00000000E+00  0.00000000E+00  0.00000000E+00  1.03239288E+00  0.00000000E+00
  0.00000000E+00  0.00000000E+00  0.00000000E+00  0.00000000E+00  0.00000000E+00
  0.00000000E+00  0.00000000E+00  0.00000000E+00  0.00000000E+00  0.00000000E+00
  0.00000000E+00  7.24292256E-02  0.00000000E+00  0.00000000E+00 -2.05176710E-03
  0.00000000E+00  0.00000000E+00 -1.66404156E-02  0.00000000E+00  0.00000000E+00
  4.33684443E-02  0.00000000E+00  0.00000000E+00  5.74698492E-02  0.00000000E+00
  0.00000000E+00 -1.61615257E-01  0.00000000E+00  0.00000000E+00  9.34928983E-02
  0.00000000E+00  0.00000000E+00 -2.71846334E-01  0.00000000E+00  0.00000000E+00
  0.00000000E+00 -1.16028803E-01  0.00000000E+00  0.00000000E+00  0.00000000E+00
  0.00000000E+00  3.05513850E-03  0.00000000E+00  0.00000000E+00  0.00000000E+00
  0.00000000E+00  4.80145804E-01  0.00000000E+00  0.00000000E+00  0.00000000E+00
  0.00000000E+00  0.00000000E+00  0.00000000E+00  1.03239288E+00  0.00000000E+00
  1.73452187E-03  5.50350282E-03 -1.38309730E-02 -2.55844489E-02  6.38693722E-02
  1.37810043E-02  2.97668829E-02 -5.66623613E-01 -3.15176853E-01  0.00000000E+00
  0.00000000E+00  1.82545826E-02  0.00000000E+00  0.00000000E+00  1.62636776E-02
  0.00000000E+00  0.00000000E+00  1.29780137E-01  0.00000000E+00  0.00000000E+00
 -3.27414689E-01  0.00000000E+00  0.00000000E+00 -7.18926782E-01  0.00000000E+00
  0.00000000E+00  2.01306904E+00  0.00000000E+00  0.00000000E+00 -1.33769774E+00
  0.00000000E+00  0.00000000E+00  9.43932157E-01  4.49252827E-02  0.00000000E+00
  0.00000000E+00  5.36558231E-16  0.00000000E+00  2.33993507E-02  0.00000000E+00
  0.00000000E+00 -1.46728047E-15  0.00000000E+00 -3.80549490E-01  0.00000000E+00
  0.00000000E+00  3.08842457E-16  0.00000000E+00  6.05365030E-01 -7.26867208E-01
  1.24917514E+00  0.00000000E+00  0.00000000E+00  7.17537582E-01  0.00000000E+00
  0.00000000E+00  0.00000000E+00  0.00000000E+00  0.00000000E+00  0.00000000E+00
  0.00000000E+00  0.00000000E+00  0.00000000E+00 -3.52980353E-01  0.00000000E+00
  0.00000000E+00  2.05468290E-02  0.00000000E+00  0.00000000E+00  1.62026995E-01
  0.00000000E+00  0.00000000E+00 -3.95532174E-01  0.00000000E+00  0.00000000E+00
 -1.11401487E+00  0.00000000E+00  0.00000000E+00  3.12028703E+00  0.00000000E+00
  0.00000000E+00 -2.62282439E+00  0.00000000E+00  0.00000000E+00  1.20748038E+00
  0.00000000E+00  0.00000000E+00  0.00000000E+00 -8.09390607E-03  0.00000000E+00
  0.00000000E+00  0.00000000E+00  0.00000000E+00 -4.97844273E-04  0.00000000E+00
  0.00000000E+00  0.00000000E+00  0.00000000E+00  4.09196747E-02  0.00000000E+00
  0.00000000E+00  0.00000000E+00  0.00000000E+00  0.00000000E+00  0.00000000E+00
  1.17815067E-01  0.00000000E+00  0.00000000E+00  0.00000000E+00  0.00000000E+00
  0.00000000E+00  0.00000000E+00  0.00000000E+00  0.00000000E+00  0.00000000E+00
  0.00000000E+00  0.00000000E+00  0.00000000E+00 -3.52980353E-01  0.00000000E+00
  0.00000000E+00  2.05468290E-02  0.00000000E+00  0.00000000E+00  1.62026995E-01
  0.00000000E+00  0.00000000E+00 -3.95532174E-01  0.00000000E+00  0.00000000E+00
 -1.11401487E+00  0.00000000E+00  0.00000000E+00  3.12028703E+00  0.00000000E+00
  0.00000000E+00 -2.62282439E+00  0.00000000E+00  0.00000000E+00  1.20748038E+00
  0.00000000E+00  0.00000000E+00  0.00000000E+00 -8.09390607E-03  0.00000000E+00
  0.00000000E+00  0.00000000E+00  0.00000000E+00 -4.97844273E-04  0.00000000E+00
  0.00000000E+00  0.00000000E+00  0.00000000E+00  4.09196747E-02  0.00000000E+00
  0.00000000E+00  0.00000000E+00  0.00000000E+00  0.00000000E+00  0.00000000E+00
  1.17815067E-01  0.00000000E+00  4.14418925E-03  1.33218056E-02 -3.52148083E-02
 -5.37632072E-02  1.26971362E-01  9.27835709E-02 -1.71379941E-01 -6.20415744E-01
  1.20466832E-01  0.00000000E+00  0.00000000E+00  2.79093162E-01  0.00000000E+00
  0.00000000E+00 -1.14114681E-02  0.00000000E+00  0.00000000E+00 -8.74417255E-02
  0.00000000E+00  0.00000000E+00  1.94391536E-01  0.00000000E+00  0.00000000E+00
  9.05673933E-01  0.00000000E+00  0.00000000E+00 -2.57415646E+00  0.00000000E+00
  0.00000000E+00  3.08234226E+00  0.00000000E+00  0.00000000E+00 -1.00459954E+00
  6.75033178E-02  0.00000000E+00  0.00000000E+00 -1.33644042E-15  0.00000000E+00
  6.92082929E-02  0.00000000E+00  0.00000000E+00  1.64328711E-15  0.00000000E+00
 -8.58180467E-01  0.00000000E+00  0.00000000E+00  4.58558730E-16  0.00000000E+00
  2.51589109E-01  8.65530431E-01 -4.52751411E-02  0.00000000E+00  0.00000000E+00
  1.21530575E+00  2.88454484E-03  9.38340558E-03 -2.59334249E-02 -3.30938896E-02
  7.31959651E-02  1.11020002E-01 -2.59539716E-01 -3.18140027E-01  3.98014424E-01
  0.00000000E+00  0.00000000E+00 -3.16270816E-01  0.00000000E+00  0.00000000E+00
  5.64349294E-03  0.00000000E+00  0.00000000E+00  4.55201469E-02  0.00000000E+00
  0.00000000E+00 -1.20433950E-01  0.00000000E+00  0.00000000E+00 -1.96752637E-01
  0.00000000E+00  0.00000000E+00  4.97510882E-01  0.00000000E+00  0.00000000E+00
  3.53552373E-01  0.00000000E+00  0.00000000E+00  2.43511299E-01 -1.78170932E-02
  0.00000000E+00  0.00000000E+00  1.02127572E-15  0.00000000E+00  8.90521489E-02
  0.00000000E+00  0.00000000E+00 -2.24210550E-15  0.00000000E+00 -6.01237069E-01
  0.00000000E+00  0.00000000E+00  2.14968322E-15  0.00000000E+00 -1.49551472E+00
  2.76837812E+00 -1.32557655E+00  0.00000000E+00  0.00000000E+00  7.63483242E-01
  0.00000000E+00  0.00000000E+00  0.00000000E+00  0.00000000E+00  0.00000000E+00
  0.00000000E+00  0.00000000E+00  0.00000000E+00  0.00000000E+00  0.00000000E+00
  0.00000000E+00  0.00000000E+00  0.00000000E+00  0.00000000E+00  0.00000000E+00
  0.00000000E+00  0.00000000E+00  0.00000000E+00  0.00000000E+00  0.00000000E+00
  0.00000000E+00  0.00000000E+00  0.00000000E+00  0.00000000E+00  0.00000000E+00
  0.00000000E+00  0.00000000E+00  0.00000000E+00  0.00000000E+00  0.00000000E+00
  0.00000000E+00  0.00000000E+00  0.00000000E+00  0.00000000E+00  0.00000000E+00
  0.00000000E+00  0.00000000E+00 -7.88111307E-01  0.00000000E+00  0.00000000E+00
  0.00000000E+00  0.00000000E+00  1.33366958E+00  0.00000000E+00  0.00000000E+00
  0.00000000E+00  0.00000000E+00 -6.54055115E-01  0.00000000E+00  0.00000000E+00
  0.00000000E+00  0.00000000E+00  0.00000000E+00  0.00000000E+00 -1.05624976E-16
 -2.73790356E-16  2.03484776E-16  3.61920978E-15 -9.97763731E-15  8.50274699E-15
 -1.35628689E-15 -3.30737189E-15 -1.02801324E-15  0.00000000E+00  0.00000000E+00
 -1.94248834E-15  0.00000000E+00  0.00000000E+00  1.14161002E-16  0.00000000E+00
  0.00000000E+00  1.02316624E-15  0.00000000E+00  0.00000000E+00 -3.64823370E-15
  0.00000000E+00  0.00000000E+00  2.87299865E-15  0.00000000E+00  0.00000000E+00
  3.51629028E-15  0.00000000E+00  0.00000000E+00 -5.91532576E-15  0.00000000E+00
  0.00000000E+00  7.88102417E-15 -6.93064361E-15  0.00000000E+00  0.00000000E+00
 -7.88111322E-01  0.00000000E+00  1.20565934E-14  0.00000000E+00  0.00000000E+00
  1.33366961E+00  0.00000000E+00 -8.13231857E-15  0.00000000E+00  0.00000000E+00
 -6.54054023E-01  0.00000000E+00 -1.10732569E-15  4.72075352E-15  2.55787475E-15
  0.00000000E+00  0.00000000E+00  1.59938756E-15  0.00000000E+00  0.00000000E+00
  0.00000000E+00  0.00000000E+00  0.00000000E+00  0.00000000E+00  0.00000000E+00
  0.00000000E+00  0.00000000E+00  0.00000000E+00 -4.95841034E-03  0.00000000E+00
  0.00000000E+00 -1.90950206E-04  0.00000000E+00  0.00000000E+00 -1.74073237E-03
  0.00000000E+00  0.00000000E+00  6.38092842E-03  0.00000000E+00  0.00000000E+00
 -7.12240198E-03  0.00000000E+00  0.00000000E+00 -8.94866591E-03  0.00000000E+00
  0.00000000E+00  2.08920467E-02  0.00000000E+00  0.00000000E+00  1.96513780E-02
  0.00000000E+00  0.00000000E+00  0.00000000E+00 -7.86237267E-01  0.00000000E+00
  0.00000000E+00  0.00000000E+00  0.00000000E+00  1.34510340E+00  0.00000000E+00
  0.00000000E+00  0.00000000E+00  0.00000000E+00 -7.05991757E-01  0.00000000E+00
  0.00000000E+00  0.00000000E+00  0.00000000E+00  0.00000000E+00  0.00000000E+00
 -1.51293506E-01  0.00000000E+00  0.00000000E+00  0.00000000E+00  0.00000000E+00
  0.00000000E+00  0.00000000E+00  0.00000000E+00  0.00000000E+00  0.00000000E+00
  0.00000000E+00 -4.95841034E-03  0.00000000E+00  0.00000000E+00 -1.90950206E-04
  0.00000000E+00  0.00000000E+00 -1.74073237E-03  0.00000000E+00  0.00000000E+00
  6.38092842E-03  0.00000000E+00  0.00000000E+00 -7.12240198E-03  0.00000000E+00
  0.00000000E+00 -8.94866591E-03  0.00000000E+00  0.00000000E+00  2.08920467E-02
  0.00000000E+00  0.00000000E+00  1.96513780E-02  0.00000000E+00  0.00000000E+00
  0.00000000E+00 -7.86237267E-01  0.00000000E+00  0.00000000E+00  0.00000000E+00
  0.00000000E+00  1.34510340E+00  0.00000000E+00  0.00000000E+00  0.00000000E+00
  0.00000000E+00 -7.05991757E-01  0.00000000E+00  0.00000000E+00  0.00000000E+00
  0.00000000E+00  0.00000000E+00  0.00000000E+00 -1.51293506E-01  0.00000000E+00
  0.00000000E+00  9.29884985E-04  2.84266230E-03 -6.04550107E-03 -1.99611980E-02
  6.01061610E-02 -3.87111109E-02  1.15768567E-01 -3.92851711E-01  6.69930419E-04
  0.00000000E+00  0.00000000E+00 -3.44956150E-03  0.00000000E+00  0.00000000E+00
 -4.74737355E-04  0.00000000E+00  0.00000000E+00 -3.84352176E-03  0.00000000E+00
  0.00000000E+00  1.08552124E-02  0.00000000E+00  0.00000000E+00  3.74232411E-02
  0.00000000E+00  0.00000000E+00 -1.74784955E-01  0.00000000E+00  0.00000000E+00
  3.37037645E-01  0.00000000E+00  0.00000000E+00  1.68112339E-01 -7.85701950E-01
  0.00000000E+00  0.00000000E+00  6.60347382E-15  0.00000000E+00  1.39914402E+00
  0.00000000E+00  0.00000000E+00 -1.14272921E-14  0.00000000E+00 -9.60059971E-01
  0.00000000E+00  0.00000000E+00  5.71625420E-15  0.00000000E+00  9.13414881E-02
  4.50511439E-01  7.33234494E-02  0.00000000E+00  0.00000000E+00  2.19982335E-01
  4.50116100E-02  1.33936553E-01 -2.44866318E-01 -1.21082488E+00  4.06184169E+00
 -3.95640904E+00  2.02718657E+00 -1.02876776E+00  1.45141132E-01  0.00000000E+00
  0.00000000E+00  3.55529167E-02  0.00000000E+00  0.00000000E+00  1.06716322E-03
  0.00000000E+00  0.00000000E+00  9.73867822E-03  0.00000000E+00  0.00000000E+00
 -3.74529880E-02  0.00000000E+00  0.00000000E+00  4.84138147E-02  0.00000000E+00
  0.00000000E+00  7.01009264E-02  0.00000000E+00  0.00000000E+00 -3.19770519E-01
  0.00000000E+00  0.00000000E+00  1.37624079E-01  1.50622837E-02  0.00000000E+00
  0.00000000E+00 -3.20146025E-15  0.00000000E+00 -5.01915460E-02  0.00000000E+00
  0.00000000E+00  5.19044611E-15  0.00000000E+00  1.75405061E-01  0.00000000E+00
  0.00000000E+00 -2.59092889E-15  0.00000000E+00  4.92813151E-02 -3.31043991E-01
  2.77795373E-01  0.00000000E+00  0.00000000E+00 -2.53440701E-01  0.00000000E+00
  0.00000000E+00  0.00000000E+00  0.00000000E+00  0.00000000E+00  0.00000000E+00
  0.00000000E+00  0.00000000E+00  0.00000000E+00  1.68150790E-01  0.00000000E+00
  0.00000000E+00  4.82609839E-02  0.00000000E+00  0.00000000E+00  4.50989291E-01
  0.00000000E+00  0.00000000E+00 -1.86216909E+00  0.00000000E+00  0.00000000E+00
  4.46523667E+00  0.00000000E+00  0.00000000E+00 -4.10299147E+00  0.00000000E+00
  0.00000000E+00  1.61877516E+00  0.00000000E+00  0.00000000E+00 -5.89436961E-01
  0.00000000E+00  0.00000000E+00  0.00000000E+00 -3.37733480E-03  0.00000000E+00
  0.00000000E+00  0.00000000E+00  0.00000000E+00  8.21242411E-03  0.00000000E+00
  0.00000000E+00  0.00000000E+00  0.00000000E+00 -1.04077329E-02  0.00000000E+00
  0.00000000E+00  0.00000000E+00  0.00000000E+00  0.00000000E+00  0.00000000E+00
 -2.13491972E-02  0.00000000E+00  0.00000000E+00  0.00000000E+00  0.00000000E+00
  0.00000000E+00  0.00000000E+00  0.00000000E+00  0.00000000E+00  0.00000000E+00
  0.00000000E+00  0.00000000E+00  0.00000000E+00  1.68150790E-01  0.00000000E+00
  0.00000000E+00  4.82609839E-02  0.00000000E+00  0.00000000E+00  4.50989291E-01
  0.00000000E+00  0.00000000E+00 -1.86216909E+00  0.00000000E+00  0.00000000E+00
  4.46523667E+00  0.00000000E+00  0.00000000E+00 -4.10299147E+00  0.00000000E+00
  0.00000000E+00  1.61877516E+00  0.00000000E+00  0.00000000E+00 -5.89436961E-01
  0.00000000E+00  0.00000000E+00  0.00000000E+00 -3.37733480E-03  0.00000000E+00
  0.00000000E+00  0.00000000E+00  0.00000000E+00  8.21242411E-03  0.00000000E+00
  0.00000000E+00  0.00000000E+00  0.00000000E+00 -1.04077329E-02  0.00000000E+00
  0.00000000E+00  0.00000000E+00  0.00000000E+00  0.00000000E+00  0.00000000E+00
 -2.13491972E-02  0.00000000E+00 -1.05395618E-03 -3.16086295E-03  6.02905440E-03
  2.80207478E-02 -9.67569832E-02  9.62382246E-02 -5.46555554E-02  7.93063931E-02
  7.71562710E-02  0.00000000E+00  0.00000000E+00  1.24903787E-01  0.00000000E+00
  0.00000000E+00  4.82998561E-02  0.00000000E+00  0.00000000E+00  4.51542436E-01
  0.00000000E+00  0.00000000E+00 -1.86661184E+00  0.00000000E+00  0.00000000E+00
  4.50032747E+00  0.00000000E+00  0.00000000E+00 -4.17085390E+00  0.00000000E+00
  0.00000000E+00  1.68482747E+00  0.00000000E+00  0.00000000E+00 -6.67098752E-01
 -8.65258392E-03  0.00000000E+00  0.00000000E+00  2.72904014E-15  0.00000000E+00
  2.08511901E-02  0.00000000E+00  0.00000000E+00 -3.53396773E-15  0.00000000E+00
 -2.38369584E-02  0.00000000E+00  0.00000000E+00  2.17608198E-15  0.00000000E+00
  5.59335163E-02  7.99706083E-02 -2.29962961E-01  0.00000000E+00  0.00000000E+00
 -2.57514725E-02  1.11834148E-01  5.05587543E-01 -3.43566358E+00  5.22765924E+00
 -4.11412108E+00  2.15324790E+00 -7.05896968E-01  3.53774754E-01 -5.02799718E-02
  0.00000000E+00  0.00000000E+00 -1.09200577E-02  0.00000000E+00  0.00000000E+00
  9.24756532E-05  0.00000000E+00  0.00000000E+00  4.75432236E-04  0.00000000E+00
  0.00000000E+00 -2.74845859E-03  0.00000000E+00  0.00000000E+00  1.77604074E-02
  0.00000000E+00  0.00000000E+00 -4.73147805E-02  0.00000000E+00  0.00000000E+00
  9.70452192E-02  0.00000000E+00  0.00000000E+00 -4.96476114E-02 -1.98117574E-03
  0.00000000E+00  0.00000000E+00  1.70248018E-15  0.00000000E+00  9.63338898E-03
  0.00000000E+00  0.00000000E+00 -1.75896545E-15  0.00000000E+00 -4.26916424E-02
  0.00000000E+00  0.00000000E+00  1.27233577E-15  0.00000000E+00 -1.10330748E-02
  8.61917595E-02 -9.03044347E-02  0.00000000E+00  0.00000000E+00  6.53950345E-02
  0.00000000E+00  0.00000000E+00  0.00000000E+00  0.00000000E+00  0.00000000E+00
  0.00000000E+00  0.00000000E+00  0.00000000E+00  0.00000000E+00  0.00000000E+00
 -2.64275628E-02  0.00000000E+00  0.00000000E+00  1.14712642E+00  0.00000000E+00
  0.00000000E+00 -8.60894965E-01  0.00000000E+00  0.00000000E+00  6.83023445E-01
  0.00000000E+00  0.00000000E+00 -8.36489611E-01  0.00000000E+00  0.00000000E+00
  6.35897380E-01  0.00000000E+00  0.00000000E+00 -2.36892929E-01  0.00000000E+00
  0.00000000E+00  8.94772215E-02  0.00000000E+00  0.00000000E+00  0.00000000E+00
  1.44295186E-04  0.00000000E+00  0.00000000E+00  0.00000000E+00  0.00000000E+00
 -5.23853288E-04  0.00000000E+00  0.00000000E+00  0.00000000E+00  0.00000000E+00
  1.12864303E-03  0.00000000E+00  0.00000000E+00  0.00000000E+00  0.00000000E+00
  0.00000000E+00  0.00000000E+00  3.15755865E-03  0.00000000E+00  0.00000000E+00
  0.00000000E+00  0.00000000E+00  0.00000000E+00  0.00000000E+00  0.00000000E+00
  0.00000000E+00  0.00000000E+00  0.00000000E+00 -2.64275628E-02  0.00000000E+00
  0.00000000E+00  1.14712642E+00  0.00000000E+00  0.00000000E+00 -8.60894965E-01
  0.00000000E+00  0.00000000E+00  6.83023445E-01  0.00000000E+00  0.00000000E+00
 -8.36489611E-01  0.00000000E+00  0.00000000E+00  6.35897380E-01  0.00000000E+00
  0.00000000E+00 -2.36892929E-01  0.00000000E+00  0.00000000E+00  8.94772215E-02
  0.00000000E+00  0.00000000E+00  0.00000000E+00  1.44295186E-04  0.00000000E+00
  0.00000000E+00  0.00000000E+00  0.00000000E+00 -5.23853288E-04  0.00000000E+00
  0.00000000E+00  0.00000000E+00  0.00000000E+00  1.12864303E-03  0.00000000E+00
  0.00000000E+00  0.00000000E+00  0.00000000E+00  0.00000000E+00  0.00000000E+00
  3.15755865E-03  0.00000000E+00  0.00000000E+00 -3.43489981E-05 -5.07890609E-05
  7.61451023E-04 -1.79407537E-03  3.11319435E-03 -3.41966404E-03  2.57352958E-03
 -6.40060537E-03 -1.37766971E-02  0.00000000E+00  0.00000000E+00 -1.95791766E-02
  0.00000000E+00  0.00000000E+00  1.14718742E+00  0.00000000E+00  0.00000000E+00
 -8.61305671E-01  0.00000000E+00  0.00000000E+00  6.84877544E-01  0.00000000E+00
  0.00000000E+00 -8.44781200E-01  0.00000000E+00  0.00000000E+00  6.49865638E-01
  0.00000000E+00  0.00000000E+00 -2.51898101E-01  0.00000000E+00  0.00000000E+00
  1.02146191E-01  6.19012698E-04  0.00000000E+00  0.00000000E+00 -2.72563318E-16
  0.00000000E+00 -2.27871184E-03  0.00000000E+00  0.00000000E+00  8.71034384E-17
  0.00000000E+00  5.39545759E-03  0.00000000E+00  0.00000000E+00 -4.89559973E-17
  0.00000000E+00 -7.02645784E-03 -1.69868580E-02  3.68032896E-02  0.00000000E+00
  0.00000000E+00 -2.80354111E-04 -1.60285375E+00  2.05247950E+00 -1.93445428E+00
  1.73838680E+00 -1.01744695E+00  5.02532596E-01 -1.66380825E-01  8.45148658E-02
 -1.20624533E-02  0.00000000E+00  0.00000000E+00 -2.65450412E-03  0.00000000E+00
  0.00000000E+00 -6.03876978E-05  0.00000000E+00  0.00000000E+00  1.54555534E-04
  0.00000000E+00  0.00000000E+00 -6.26429981E-04  0.00000000E+00  0.00000000E+00
  4.09045584E-03  0.00000000E+00  0.00000000E+00 -1.10726324E-02  0.00000000E+00
  0.00000000E+00  2.29349631E-02  0.00000000E+00  0.00000000E+00 -1.19390529E-02
 -4.49143188E-04  0.00000000E+00  0.00000000E+00  4.88449441E-16  0.00000000E+00
  2.23317803E-03  0.00000000E+00  0.00000000E+00 -3.34801909E-16  0.00000000E+00
 -1.00305296E-02  0.00000000E+00  0.00000000E+00  2.64934503E-16  0.00000000E+00
 -2.75563223E-03  2.04957184E-02 -2.17930956E-02  0.00000000E+00  0.00000000E+00
  1.54568668E-02
Orthonormal basis                          R   N=        2916
  1.80287243E-02  3.37500381E-02  6.06854898E-02  7.57349743E-02  9.23324555E-02
  1.04322550E-01  1.33387311E-01  1.46893457E-01  1.17988012E-01  0.00000000E+00
  0.00000000E+00 -9.26125582E-02  0.00000000E+00  0.00000000E+00 -2.94397541E-03
  0.00000000E+00  0.00000000E+00 -1.33826361E-02  0.00000000E+00  0.00000000E+00
 -4.39959051E-02  0.00000000E+00  0.00000000E+00 -7.48507953E-02  0.00000000E+00
  0.00000000E+00 -9.71557046E-02  0.00000000E+00  0.00000000E+00 -1.31042346E-01
  0.00000000E+00  0.00000000E+00 -1.36985784E-01  4.54481043E-03  0.00000000E+00
  0.00000000E+00  1.02347976E-32  0.00000000E+00  1.57284105E-02  0.00000000E+00
  0.00000000E+00 -1.36454606E-32  0.00000000E+00  4.08832161E-02  0.00000000E+00
  0.00000000E+00  1.20484023E-32  0.00000000E+00  1.09199499E-01  1.80314586E-01
  1.88895190E-01  0.00000000E+00  0.00000000E+00  5.34896442E-02  7.12255640E-02
  1.19703194E-01  1.82494698E-01  2.04523000E-01  2.05483260E-01  1.84272428E-01
  1.18770053E-01  7.44287239E-02  3.48006965E-02  0.00000000E+00  0.00000000E+00
  8.08236839E-02  0.00000000E+00  0.00000000E+00  7.66876929E-03  0.00000000E+00
  0.00000000E+00  2.86385853E-02  0.00000000E+00  0.00000000E+00  7.85908641E-02
  0.00000000E+00  0.00000000E+00  1.16261137E-01  0.00000000E+00  0.00000000E+00
  1.33713789E-01  0.00000000E+00  0.00000000E+00  1.45312034E-01  0.00000000E+00
  0.00000000E+00  1.27940322E-01 -3.77040744E-03  0.00000000E+00  0.00000000E+00
 -3.60350876E-30  0.00000000E+00 -1.11018823E-02  0.00000000E+00  0.00000000E+00
  4.80382672E-30  0.00000000E+00 -2.51046961E-02  0.00000000E+00  0.00000000E+00
 -4.24224043E-30  0.00000000E+00 -6.08040877E-02 -7.86616032E-02 -4.25420950E-02
  0.00000000E+00  0.00000000E+00 -2.39053019E-02 -9.58043873E-02 -1.38429578E-01
 -1.61300941E-01 -1.49537196E-01 -9.80695803E-02 -3.35420470E-02  1.00484438E-01
  1.66202196E-01  1.64073941E-01  0.00000000E+00  0.00000000E+00 -1.53633653E-02
  0.00000000E+00  0.00000000E+00  3.28080786E-02  0.00000000E+00  0.00000000E+00
  9.39813167E-02  0.00000000E+00  0.00000000E+00  1.98122273E-01  0.00000000E+00
  0.00000000E+00  2.38580680E-01  0.00000000E+00  0.00000000E+00  2.24778833E-01
  0.00000000E+00  0.00000000E+00  1.37416273E-01  0.00000000E+00  0.00000000E+00
  2.75509070E-02  7.54499220E-03  0.00000000E+00  0.00000000E+00 -4.23295847E-27
  0.00000000E+00  1.75076540E-02  0.00000000E+00  0.00000000E+00  5.64100478E-27
  0.00000000E+00  3.83618369E-02  0.00000000E+00  0.00000000E+00 -4.98281774E-27
  0.00000000E+00  7.82752363E-02  1.00897087E-01  1.42310237E-01  0.00000000E+00
  0.00000000E+00 -4.64289782E-02  1.78863629E-01  2.11112021E-01  1.50097100E-01
  8.48131690E-02 -2.49767564E-02 -1.11154288E-01 -2.06992864E-01 -1.97930056E-01
 -1.39659388E-01  0.00000000E+00  0.00000000E+00 -2.02255834E-01  0.00000000E+00
  0.00000000E+00  7.53526224E-02  0.00000000E+00  0.00000000E+00  1.52555015E-01
  0.00000000E+00  0.00000000E+00  2.13491189E-01  0.00000000E+00  0.00000000E+00
  1.82193660E-01  0.00000000E+00  0.00000000E+00  1.13397453E-01  0.00000000E+00
  0.00000000E+00 -5.88077136E-02  0.00000000E+00  0.00000000E+00 -2.10265235E-01
  2.87258503E-02  0.00000000E+00  0.00000000E+00 -6.42212391E-24  0.00000000E+00
  4.96056578E-02  0.00000000E+00  0.00000000E+00  8.55375425E-24  0.00000000E+00
  7.47115521E-02  0.00000000E+00  0.00000000E+00 -7.55884455E-24  0.00000000E+00
  1.32304306E-01  1.15659219E-01  4.24554780E-02  0.00000000E+00  0.00000000E+00
 -9.41218076E-02  4.44707064E-03  4.79135096E-03  2.44518595E-03  6.68009015E-04
 -1.52861801E-03 -1.59032085E-03  5.66437966E-03 -1.06218540E-02 -3.68802380E-02
  0.00000000E+00  0.00000000E+00  1.26829830E-01  0.00000000E+00  0.00000000E+00
 -5.59256085E-03  0.00000000E+00  0.00000000E+00 -9.67534026E-03  0.00000000E+00
  0.00000000E+00 -1.08053084E-02  0.00000000E+00  0.00000000E+00 -8.89643729E-03
  0.00000000E+00  0.00000000E+00 -6.98287559E-03  0.00000000E+00  0.00000000E+00
  2.32992302E-02  0.00000000E+00  0.00000000E+00  1.08353315E-01  2.88792564E-01
  0.00000000E+00  0.00000000E+00  3.79827269E-21  0.00000000E+00  4.40011147E-01
  0.00000000E+00  0.00000000E+00 -5.05744625E-21  0.00000000E+00  4.04210587E-01
  0.00000000E+00  0.00000000E+00  4.47014863E-21  0.00000000E+00  6.66237272E-02
  2.40047191E-02 -8.12703994E-02  0.00000000E+00  0.00000000E+00  2.18510521E-01
 -4.51662506E-18  1.01568934E-17 -2.18621736E-17  1.22813915E-17  3.46522214E-17
 -5.71885701E-17  5.15825131E-17 -4.15238773E-17 -4.88022457E-17  0.00000000E+00
  0.00000000E+00  1.38293226E-16  0.00000000E+00  0.00000000E+00 -3.64434172E-17
  0.00000000E+00  0.00000000E+00  8.50591677E-17  0.00000000E+00  0.00000000E+00
 -1.35265965E-16  0.00000000E+00  0.00000000E+00  7.79864647E-17  0.00000000E+00
  0.00000000E+00  3.04523178E-17  0.00000000E+00  0.00000000E+00 -4.34778099E-18
  0.00000000E+00  0.00000000E+00 -1.14712302E-16 -1.46132418E-17  0.00000000E+00
  0.00000000E+00  3.70012488E-01  0.00000000E+00  1.12371911E-17  0.00000000E+00
  0.00000000E+00  5.11320148E-01  0.00000000E+00  2.08155837E-17  0.00000000E+00
  0.00000000E+00  4.07296732E-01  0.00000000E+00 -4.22723891E-18 -1.08233419E-16
  1.46862109E-16  0.00000000E+00  0.00000000E+00 -8.34564472E-18  3.72578521E-01
  3.34091161E-01  3.58061487E-02 -1.09318669E-01 -2.15895680E-01 -2.04936774E-01
 -2.04346730E-02  1.23121647E-01  1.95073554E-01  0.00000000E+00  0.00000000E+00
  8.18194762E-02  0.00000000E+00  0.00000000E+00 -2.27175197E-01  0.00000000E+00
  0.00000000E+00 -2.84451017E-01  0.00000000E+00  0.00000000E+00 -1.57627802E-01
  0.00000000E+00  0.00000000E+00 -1.31125094E-02  0.00000000E+00  0.00000000E+00
  6.76606845E-02  0.00000000E+00  0.00000000E+00  1.35091084E-01  0.00000000E+00
  0.00000000E+00  1.17958338E-01 -9.70576409E-03  0.00000000E+00  0.00000000E+00
 -2.09982517E-21  0.00000000E+00 -1.17274520E-02  0.00000000E+00  0.00000000E+00
  2.79398788E-21  0.00000000E+00  7.07729552E-03  0.00000000E+00  0.00000000E+00
 -2.47079712E-21  0.00000000E+00  4.95049920E-02  5.07015098E-02  8.87243941E-02
  0.00000000E+00  0.00000000E+00 -8.78139861E-02  2.37061716E-01  1.91867955E-01
 -2.36005007E-02 -1.08084302E-01 -1.39651904E-01 -9.20428951E-02  7.74539570E-02
  1.29764070E-01  1.16946319E-01  0.00000000E+00  0.00000000E+00  1.76348335E-01
  0.00000000E+00  0.00000000E+00  4.02934995E-01  0.00000000E+00  0.00000000E+00
  4.17689781E-01  0.00000000E+00  0.00000000E+00  9.90918811E-02  0.00000000E+00
  0.00000000E+00 -1.13412228E-01  0.00000000E+00  0.00000000E+00 -1.68555824E-01
  0.00000000E+00  0.00000000E+00 -9.50877413E-02  0.00000000E+00  0.00000000E+00
  1.06911047E-01 -6.92090692E-02  0.00000000E+00  0.00000000E+00  1.25744640E-20
  0.00000000E+00 -6.62517364E-02  0.00000000E+00  0.00000000E+00 -1.67244929E-20
  0.00000000E+00 -4.29774472E-02  0.00000000E+00  0.00000000E+00  1.47949681E-20
  0.00000000E+00 -8.53760730E-02 -6.20281435E-02 -2.73072432E-02  0.00000000E+00
  0.00000000E+00  2.19494989E-01  3.97756738E-02  2.12736479E-02 -2.43941770E-02
 -3.04494648E-02 -1.44010602E-02  7.23250244E-03  1.37766926E-02  4.76198212E-02
  1.30619511E-01  0.00000000E+00  0.00000000E+00 -2.62318652E-01  0.00000000E+00
  0.00000000E+00  1.58238684E-01  0.00000000E+00  0.00000000E+00  6.60844178E-02
  0.00000000E+00  0.00000000E+00 -1.03211958E-01  0.00000000E+00  0.00000000E+00
 -9.22398093E-02  0.00000000E+00  0.00000000E+00 -1.55103164E-02  0.00000000E+00
  0.00000000E+00  7.90668426E-02  0.00000000E+00  0.00000000E+00 -9.52725849E-02
  5.52139281E-01  0.00000000E+00  0.00000000E+00 -4.66746966E-18  0.00000000E+00
  2.52103842E-01  0.00000000E+00  0.00000000E+00  6.19571445E-18  0.00000000E+00
 -2.96906313E-01  0.00000000E+00  0.00000000E+00 -5.48867427E-18  0.00000000E+00
 -3.59429341E-01 -1.46643589E-01  1.44700664E-01  0.00000000E+00  0.00000000E+00
 -2.96902656E-01  1.51712645E-01  7.33054747E-02 -1.05153147E-01 -1.20442034E-01
 -4.25093170E-02  6.09447236E-02  1.73325764E-01  5.17663221E-02 -9.46987913E-02
  0.00000000E+00  0.00000000E+00 -2.18152998E-01  0.00000000E+00  0.00000000E+00
 -3.59660128E-01  0.00000000E+00  0.00000000E+00 -1.11531305E-01  0.00000000E+00
  0.00000000E+00  2.68007454E-01  0.00000000E+00  0.00000000E+00  2.01212207E-01
  0.00000000E+00  0.00000000E+00  2.15772856E-02  0.00000000E+00  0.00000000E+00
 -1.89039626E-01  0.00000000E+00  0.00000000E+00 -1.94848052E-01  8.44282847E-03
  0.00000000E+00  0.00000000E+00  2.11223147E-18  0.00000000E+00  7.64417449E-03
  0.00000000E+00  0.00000000E+00 -2.80270617E-18  0.00000000E+00 -9.39486897E-02
  0.00000000E+00  0.00000000E+00  2.48395030E-18  0.00000000E+00 -3.61730250E-01
 -2.07173152E-01 -1.79047229E-02  0.00000000E+00  0.00000000E+00  5.04056455E-01
 -7.75763908E-18  1.75622107E-17 -4.03188254E-17  3.09784243E-17  3.29280003E-17
 -5.86344690E-17  2.63810039E-17  1.54831830E-17 -1.19659309E-17  0.00000000E+00
  0.00000000E+00  2.00137110E-16  0.00000000E+00  0.00000000E+00 -5.88431147E-17
  0.00000000E+00  0.00000000E+00  1.20258302E-16  0.00000000E+00  0.00000000E+00
 -1.52049068E-16  0.00000000E+00  0.00000000E+00 -2.34011892E-17  0.00000000E+00
  0.00000000E+00  1.73779303E-16  0.00000000E+00  0.00000000E+00  9.97463561E-18
  0.00000000E+00  0.00000000E+00 -2.62005321E-16  4.47686361E-17  0.00000000E+00
  0.00000000E+00  7.94969170E-01  0.00000000E+00 -8.99250396E-17  0.00000000E+00
  0.00000000E+00 -2.05292138E-02  0.00000000E+00  9.11605121E-17  0.00000000E+00
  0.00000000E+00 -6.96424738E-01  0.00000000E+00 -1.32624346E-16  4.68855593E-17
 -2.07010288E-17  0.00000000E+00  0.00000000E+00 -7.56182414E-18 -3.01862332E-01
 -5.05692239E-02  3.20186904E-01  2.34558881E-01 -8.82676139E-02 -3.02444412E-01
 -2.32558997E-01  4.54050695E-02  3.10674043E-01  0.00000000E+00  0.00000000E+00
  3.87745640E-01  0.00000000E+00  0.00000000E+00 -3.76858852E-01  0.00000000E+00
  0.00000000E+00  1.10595977E-01  0.00000000E+00  0.00000000E+00  3.41552424E-01
  0.00000000E+00  0.00000000E+00  3.79663312E-02  0.00000000E+00  0.00000000E+00
 -1.73443111E-01  0.00000000E+00  0.00000000E+00 -2.58696911E-01  0.00000000E+00
  0.00000000E+00  6.71309023E-02  3.13158875E-01  0.00000000E+00  0.00000000E+00
  1.85420224E-17  0.00000000E+00 -5.71496604E-02  0.00000000E+00  0.00000000E+00
 -2.44957243E-17  0.00000000E+00 -2.79894200E-01  0.00000000E+00  0.00000000E+00
  2.17854196E-17  0.00000000E+00  5.54645800E-02  3.80811253E-02  2.87931267E-02
  0.00000000E+00  0.00000000E+00  4.67593555E-02  3.10477799E-01  4.22103658E-02
 -3.37218586E-01 -2.35917620E-01  1.09650275E-01  3.21924883E-01  2.25515802E-01
 -2.84143611E-02 -3.26614118E-01  0.00000000E+00  0.00000000E+00  3.08234282E-01
  0.00000000E+00  0.00000000E+00 -1.81199391E-01  0.00000000E+00  0.00000000E+00
  6.32702416E-02  0.00000000E+00  0.00000000E+00  1.61007158E-01  0.00000000E+00
  0.00000000E+00  1.04054404E-02  0.00000000E+00  0.00000000E+00 -8.79300877E-02
  0.00000000E+00  0.00000000E+00 -1.76312479E-01  0.00000000E+00  0.00000000E+00
 -2.64853742E-03  3.81588747E-01  0.00000000E+00  0.00000000E+00  2.02492245E-17
  0.00000000E+00 -9.35274182E-02  0.00000000E+00  0.00000000E+00 -2.67324739E-17
  0.00000000E+00 -2.71253747E-01  0.00000000E+00  0.00000000E+00  2.37862931E-17
  0.00000000E+00  3.96336393E-01  1.43146441E-01 -2.12390749E-01  0.00000000E+00
  0.00000000E+00 -2.46822303E-01 -1.47876543E-01  2.39927664E-02  1.80703759E-01
  7.21768624E-02 -1.31021610E-01 -1.69822518E-01  9.81578532E-02  8.64879829E-02
 -1.66658763E-01  0.00000000E+00  0.00000000E+00  4.17966761E-02  0.00000000E+00
  0.00000000E+00  5.80896866E-01  0.00000000E+00  0.00000000E+00 -4.87660833E-01
  0.00000000E+00  0.00000000E+00 -2.69378336E-01  0.00000000E+00  0.00000000E+00
  2.89722304E-01  0.00000000E+00  0.00000000E+00  2.86079476E-01  0.00000000E+00
  0.00000000E+00 -7.41464029E-02  0.00000000E+00  0.00000000E+00 -9.48052475E-02
  4.12909011E-01  0.00000000E+00  0.00000000E+00 -5.55972913E-18  0.00000000E+00
 -2.94735787E-01  0.00000000E+00  0.00000000E+00  7.29680404E-18  0.00000000E+00
 -2.94317427E-01  0.00000000E+00  0.00000000E+00 -6.55136673E-18  0.00000000E+00
  3.03950310E-01 -1.15706096E-03 -1.05388014E-01  0.00000000E+00  0.00000000E+00
  4.63652883E-01 -2.67129812E-01  1.22241125E-01  3.10499053E-01  2.21192272E-02
 -3.18898541E-01 -2.22032091E-01  4.07120032E-01  2.54909381E-01 -4.56040396E-01
  0.00000000E+00  0.00000000E+00 -5.40416579E-01  0.00000000E+00  0.00000000E+00
 -4.29204395E-01  0.00000000E+00  0.00000000E+00  5.44137856E-01  0.00000000E+00
  0.00000000E+00 -1.39749075E-01  0.00000000E+00  0.00000000E+00 -3.26944983E-01
  0.00000000E+00  0.00000000E+00 -1.58695773E-02  0.00000000E+00  0.00000000E+00
  4.45734829E-01  0.00000000E+00  0.00000000E+00  2.13601252E-01  2.25314011E-01
  0.00000000E+00  0.00000000E+00  1.17194541E-16  0.00000000E+00 -2.67784161E-01
  0.00000000E+00  0.00000000E+00 -1.50534346E-16  0.00000000E+00  2.72751518E-02
  0.00000000E+00  0.00000000E+00  1.37879337E-16  0.00000000E+00  3.26743283E-01
 -6.24088440E-02 -1.20643721E-01  0.00000000E+00  0.00000000E+00  1.26195470E-01
 -3.51640188E-01  2.17395108E-01  3.66626731E-01 -5.62386295E-02 -4.24884959E-01
 -1.74465170E-01  5.68054259E-01  3.05731069E-01 -5.71531842E-01  0.00000000E+00
  0.00000000E+00  3.47072660E-01  0.00000000E+00  0.00000000E+00  1.33754997E-01
  0.00000000E+00  0.00000000E+00 -1.97932810E-01  0.00000000E+00  0.00000000E+00
  1.17182769E-01  0.00000000E+00  0.00000000E+00  9.52094192E-02  0.00000000E+00
  0.00000000E+00 -3.85123930E-02  0.00000000E+00  0.00000000E+00 -2.26730371E-01
  0.00000000E+00  0.00000000E+00 -2.23963045E-01 -4.57342814E-01  0.00000000E+00
  0.00000000E+00 -1.74944704E-16  0.00000000E+00  6.52380148E-01  0.00000000E+00
  0.00000000E+00  2.19107586E-16  0.00000000E+00 -2.19531784E-01  0.00000000E+00
  0.00000000E+00 -2.07303731E-16  0.00000000E+00 -2.70651642E-01  1.92582306E-01
 -9.27842015E-02  0.00000000E+00  0.00000000E+00 -4.41517542E-01  2.09018087E-17
 -4.25512282E-17  1.59880022E-17  1.85947748E-16 -5.48047658E-16  5.41674554E-16
 -1.98886812E-16 -5.23175129E-17  2.10805467E-16  0.00000000E+00  0.00000000E+00
 -3.08335621E-16  0.00000000E+00  0.00000000E+00  1.31471537E-16  0.00000000E+00
  0.00000000E+00 -4.10893456E-16  0.00000000E+00  0.00000000E+00  7.83749401E-16
  0.00000000E+00  0.00000000E+00 -2.73323126E-16  0.00000000E+00  0.00000000E+00
 -8.19127983E-16  0.00000000E+00  0.00000000E+00  9.61658992E-16  0.00000000E+00
  0.00000000E+00 -1.21659618E-16  1.68926504E-16  0.00000000E+00  0.00000000E+00
 -7.59130084E-01  0.00000000E+00 -1.90073125E-16  0.00000000E+00  0.00000000E+00
  1.26940102E+00  0.00000000E+00 -4.44015350E-17  0.00000000E+00  0.00000000E+00
 -9.03966765E-01  0.00000000E+00  3.55470018E-16 -1.09890458E-17 -2.34982618E-16
  0.00000000E+00  0.00000000E+00  2.08550604E-16  1.29957126E-01 -1.16132370E-01
 -8.81800123E-02  7.01287931E-02  1.18019359E-01 -2.87053032E-02 -1.34196314E-01
  4.46916850E-02  3.44114221E-01  0.00000000E+00  0.00000000E+00 -3.78903706E-01
  0.00000000E+00  0.00000000E+00 -5.45147758E-02  0.00000000E+00  0.00000000E+00
  9.88384490E-02  0.00000000E+00  0.00000000E+00 -1.08290843E-01  0.00000000E+00
  0.00000000E+00  3.87027616E-04  0.00000000E+00  0.00000000E+00  5.15866407E-02
  0.00000000E+00  0.00000000E+00 -1.60661293E-02  0.00000000E+00  0.00000000E+00
  1.14845027E-01 -5.08540523E-01  0.00000000E+00  0.00000000E+00  0.00000000E+00
  0.00000000E+00  9.47593262E-01  0.00000000E+00  0.00000000E+00 -5.21287971E-17
  0.00000000E+00 -8.44641144E-01  0.00000000E+00  0.00000000E+00 -1.11034260E-16
  0.00000000E+00  8.83796919E-01 -5.33337705E-01 -2.51016491E-01  0.00000000E+00
  0.00000000E+00  2.51174278E-01 -1.09082854E-01  1.09013968E-01  5.23323563E-02
 -7.05936348E-02 -7.35317470E-02  4.29524676E-02  9.51056993E-02  6.32139704E-02
  7.66090547E-02  0.00000000E+00  0.00000000E+00 -6.48663014E-01  0.00000000E+00
  0.00000000E+00  4.40193507E-01  0.00000000E+00  0.00000000E+00 -8.50533230E-01
  0.00000000E+00  0.00000000E+00  1.08867435E+00  0.00000000E+00  0.00000000E+00
 -1.86746116E-01  0.00000000E+00  0.00000000E+00 -7.79012118E-01  0.00000000E+00
  0.00000000E+00  6.18787607E-02  0.00000000E+00  0.00000000E+00  6.55095537E-01
  5.45366848E-02  0.00000000E+00  0.00000000E+00  6.56611525E-16  0.00000000E+00
 -1.15421144E-01  0.00000000E+00  0.00000000E+00 -7.09185480E-16  0.00000000E+00
  1.98142597E-01  0.00000000E+00  0.00000000E+00  4.61850170E-16  0.00000000E+00
  2.33575744E-01 -1.94443904E-01 -1.36168938E-01  0.00000000E+00  0.00000000E+00
 -2.53891254E-01 -1.09883114E+00  1.30729874E+00  3.01156113E-02 -8.15605423E-01
 -8.59709938E-02  7.36531219E-01 -5.35178489E-02 -4.92868309E-01  5.45721501E-01
  0.00000000E+00  0.00000000E+00  1.26220523E-02  0.00000000E+00  0.00000000E+00
 -4.92425227E-02  0.00000000E+00  0.00000000E+00  1.05078183E-01  0.00000000E+00
  0.00000000E+00 -1.67118244E-01  0.00000000E+00  0.00000000E+00  8.19309801E-02
  0.00000000E+00  0.00000000E+00  1.09819126E-01  0.00000000E+00  0.00000000E+00
 -1.40225343E-01  0.00000000E+00  0.00000000E+00 -1.39352208E-01  2.51775024E-02
  0.00000000E+00  0.00000000E+00  0.00000000E+00  0.00000000E+00 -5.73656151E-02
  0.00000000E+00  0.00000000E+00 -4.74547638E-17  0.00000000E+00  9.21295236E-02
  0.00000000E+00  0.00000000E+00  3.53860679E-17  0.00000000E+00  1.89275016E-01
 -2.80681981E-01 -8.88310023E-02  0.00000000E+00  0.00000000E+00  7.50266022E-04
  5.79774178E-01 -9.29617196E-01  8.61184613E-01  3.07377986E-02 -9.98380817E-01
  3.06798291E-01  1.07789743E+00 -6.93290253E-01  1.01720719E+00  0.00000000E+00
  0.00000000E+00 -1.40432061E-02  0.00000000E+00  0.00000000E+00 -2.41661540E-02
  0.00000000E+00  0.00000000E+00  6.10088915E-02  0.00000000E+00  0.00000000E+00
 -1.37460363E-01  0.00000000E+00  0.00000000E+00  1.63427355E-01  0.00000000E+00
  0.00000000E+00  8.38545093E-02  0.00000000E+00  0.00000000E+00 -4.87811687E-01
  0.00000000E+00  0.00000000E+00 -7.14056416E-01  1.03187146E-01  0.00000000E+00
  0.00000000E+00  1.66966233E-16  0.00000000E+00 -3.07108159E-01  0.00000000E+00
  0.00000000E+00 -2.57914869E-16  0.00000000E+00  7.15182432E-01  0.00000000E+00
  0.00000000E+00  1.62421483E-16  0.00000000E+00  3.26082236E-01 -9.46762050E-01
 -7.49173998E-01  0.00000000E+00  0.00000000E+00 -5.91979727E-01  3.17946140E-02
 -5.51701152E-02  6.90590268E-02 -2.04376321E-02 -6.82425765E-02  4.93502766E-02
 -1.92703214E-02  1.56486364E-01  8.47242330E-02  0.00000000E+00  0.00000000E+00
 -9.77573388E-01  0.00000000E+00  0.00000000E+00 -1.58297855E-01  0.00000000E+00
  0.00000000E+00  4.16792572E-01  0.00000000E+00  0.00000000E+00 -1.01499198E+00
  0.00000000E+00  0.00000000E+00  1.41247113E+00  0.00000000E+00  0.00000000E+00
 -1.17561770E-01  0.00000000E+00  0.00000000E+00 -1.68468123E+00  0.00000000E+00
  0.00000000E+00  1.82154107E+00  3.40142665E-03  0.00000000E+00  0.00000000E+00
 -5.39442586E-16  0.00000000E+00 -2.02545486E-02  0.00000000E+00  0.00000000E+00
  1.22179194E-15  0.00000000E+00  8.60879716E-02  0.00000000E+00  0.00000000E+00
 -1.13954285E-15  0.00000000E+00 -4.07972486E-01  7.05255682E-01 -5.42107215E-01
  0.00000000E+00  0.00000000E+00 -3.93773550E-01 -4.67370746E-01  8.78273467E-01
 -1.44007111E+00  8.70209469E-01  1.04560672E+00 -1.42754737E+00  1.04418560E-01
  1.55178453E+00  2.38383784E-01  0.00000000E+00  0.00000000E+00 -1.11879012E-01
  0.00000000E+00  0.00000000E+00 -1.97825505E-02  0.00000000E+00  0.00000000E+00
  5.43861866E-02  0.00000000E+00  0.00000000E+00 -1.46151529E-01  0.00000000E+00
  0.00000000E+00  2.44805181E-01  0.00000000E+00  0.00000000E+00  2.97137056E-02
  0.00000000E+00  0.00000000E+00 -6.33574918E-01  0.00000000E+00  0.00000000E+00
 -9.91785749E-01  1.08697827E-01  0.00000000E+00  0.00000000E+00  2.19542447E-16
  0.00000000E+00 -3.65502446E-01  0.00000000E+00  0.00000000E+00  4.40505984E-16
  0.00000000E+00  9.60778988E-01  0.00000000E+00  0.00000000E+00 -7.08326116E-16
  0.00000000E+00  2.26284038E-01 -1.17084287E+00 -1.23730664E+00  0.00000000E+00
  0.00000000E+00 -8.42027174E-01  3.28136430E-01 -6.74909627E-01  1.47828697E+00
 -1.44070105E+00 -2.17255199E-01  1.29478277E+00 -2.12699461E+00  2.47773161E+00
 -1.14885052E+00  0.00000000E+00  0.00000000E+00  3.04191559E-01  0.00000000E+00
  0.00000000E+00 -3.15268928E-02  0.00000000E+00  0.00000000E+00  9.06633581E-02
  0.00000000E+00  0.00000000E+00 -2.67883594E-01  0.00000000E+00  0.00000000E+00
  5.74423590E-01  0.00000000E+00  0.00000000E+00 -3.25179789E-01  0.00000000E+00
  0.00000000E+00 -5.02151570E-01  0.00000000E+00  0.00000000E+00 -2.42187198E-01
  6.17763313E-02  0.00000000E+00  0.00000000E+00  8.32936991E-16  0.00000000E+00
 -2.21922674E-01  0.00000000E+00  0.00000000E+00 -2.51499746E-16  0.00000000E+00
  6.61261160E-01  0.00000000E+00  0.00000000E+00 -5.68398735E-16  0.00000000E+00
  4.97892196E-01 -1.89489451E+00  1.02310136E+00  0.00000000E+00  0.00000000E+00
 -4.35519350E-01 -1.98619122E-01  4.20651931E-01 -1.01215157E+00  1.12041756E+00
 -1.27673835E-01 -7.26449385E-01  1.33808965E+00 -1.55331619E+00 -9.86523036E-01
  0.00000000E+00  0.00000000E+00  7.05854973E-01  0.00000000E+00  0.00000000E+00
 -6.16543795E-02  0.00000000E+00  0.00000000E+00  1.79818608E-01  0.00000000E+00
  0.00000000E+00 -5.48986997E-01  0.00000000E+00  0.00000000E+00  1.28993265E+00
  0.00000000E+00  0.00000000E+00 -1.01661314E+00  0.00000000E+00  0.00000000E+00
 -3.91437355E-01  0.00000000E+00  0.00000000E+00  8.74965833E-01  9.33446683E-03
  0.00000000E+00  0.00000000E+00 -3.06339254E-16  0.00000000E+00 -4.78230783E-02
  0.00000000E+00  0.00000000E+00  9.78907772E-16  0.00000000E+00  3.01806206E-01
  0.00000000E+00  0.00000000E+00 -8.36205489E-16  0.00000000E+00  7.46970103E-01
 -2.24807436E+00  3.46674958E+00  0.00000000E+00  0.00000000E+00 -2.48456979E-01
 -6.23120150E-02  1.43329602E-01 -4.54501225E-01  7.00822509E-01 -6.06648099E-01
  2.72543421E-01 -2.39959430E-02  5.79608638E-02 -5.48883485E-01  0.00000000E+00
  0.00000000E+00 -2.39964821E-01  0.00000000E+00  0.00000000E+00  1.34695064E-01
  0.00000000E+00  0.00000000E+00 -4.08296667E-01  0.00000000E+00  0.00000000E+00
  1.38115832E+00  0.00000000E+00  0.00000000E+00 -4.21139436E+00  0.00000000E+00
  0.00000000E+00  5.14276201E+00  0.00000000E+00  0.00000000E+00 -3.51801550E+00
  0.00000000E+00  0.00000000E+00  1.81757846E+00  2.60193144E-02  0.00000000E+00
  0.00000000E+00 -2.41924535E-15  0.00000000E+00 -1.05999609E-01  0.00000000E+00
  0.00000000E+00  2.38997469E-15  0.00000000E+00  3.66153886E-01  0.00000000E+00
  0.00000000E+00 -2.08886412E-15  0.00000000E+00  7.56712208E-02 -1.02680083E+00
  1.30296495E+00  0.00000000E+00  0.00000000E+00 -3.54657764E-01  3.77026153E-01
 -8.88076506E-01  3.06494929E+00 -5.17996480E+00  5.66581722E+00 -4.03110624E+00
  2.03470645E+00 -1.28761264E+00  1.02393850E-01  0.00000000E+00  0.00000000E+00
  3.95370612E-02  0.00000000E+00  0.00000000E+00  1.25001780E-02  0.00000000E+00
  0.00000000E+00 -3.82981297E-02  0.00000000E+00  0.00000000E+00  1.33957098E-01
  0.00000000E+00  0.00000000E+00 -4.52170366E-01  0.00000000E+00  0.00000000E+00
  6.46228407E-01  0.00000000E+00  0.00000000E+00 -6.64698378E-01  0.00000000E+00
  0.00000000E+00  4.28595775E-01  5.70031932E-03  0.00000000E+00  0.00000000E+00
 -2.81345711E-15  0.00000000E+00 -2.90747730E-02  0.00000000E+00  0.00000000E+00
  2.86149208E-15  0.00000000E+00  1.41734740E-01  0.00000000E+00  0.00000000E+00
 -2.04646663E-15  0.00000000E+00  7.80912358E-02 -4.13714038E-01  6.05691987E-01
  0.00000000E+00  0.00000000E+00 -2.15790859E-01  0.00000000E+00  0.00000000E+00
  0.00000000E+00  0.00000000E+00  0.00000000E+00  0.00000000E+00  0.00000000E+00
  0.00000000E+00  0.00000000E+00  0.00000000E+00  0.00000000E+00  0.00000000E+00
  0.00000000E+00  0.00000000E+00  0.00000000E+00  0.00000000E+00  0.00000000E+00
  0.00000000E+00  0.00000000E+00  0.00000000E+00  0.00000000E+00  0.00000000E+00
  0.00000000E+00  0.00000000E+00  0.00000000E+00  0.00000000E+00  0.00000000E+00
  0.00000000E+00  0.00000000E+00  0.00000000E+00  0.00000000E+00  0.00000000E+00
  0.00000000E+00  0.00000000E+00  0.00000000E+00  0.00000000E+00  0.00000000E+00
  3.70012488E-01  0.00000000E+00  0.00000000E+00  0.00000000E+00  0.00000000E+00
  5.11320148E-01  0.00000000E+00  0.00000000E+00  0.00000000E+00  0.00000000E+00
  4.07296732E-01  0.00000000E+00  0.00000000E+00  0.00000000E+00  0.00000000E+00
  0.00000000E+00  0.00000000E+00  0.00000000E+00  0.00000000E+00  0.00000000E+00
  0.00000000E+00  0.00000000E+00  0.00000000E+00  0.00000000E+00  0.00000000E+00
  0.00000000E+00  0.00000000E+00  0.00000000E+00  0.00000000E+00  0.00000000E+00
  0.00000000E+00  0.00000000E+00  0.00000000E+00  0.00000000E+00  0.00000000E+00
  0.00000000E+00  0.00000000E+00  0.00000000E+00  0.00000000E+00  0.00000000E+00
  0.00000000E+00  0.00000000E+00  0.00000000E+00  0.00000000E+00  0.00000000E+00
  0.00000000E+00  0.00000000E+00  0.00000000E+00  0.00000000E+00  0.00000000E+00
  0.00000000E+00  0.00000000E+00  0.00000000E+00  0.00000000E+00  7.94969170E-01
  0.00000000E+00  0.00000000E+00  0.00000000E+00  0.00000000E+00 -2.05292138E-02
  0.00000000E+00  0.00000000E+00  0.00000000E+00  0.00000000E+00 -6.96424738E-01
  0.00000000E+00  0.00000000E+00  0.00000000E+00  0.00000000E+00  0.00000000E+00
  0.00000000E+00  0.00000000E+00  0.00000000E+00  0.00000000E+00  0.00000000E+00
  0.00000000E+00  0.00000000E+00  0.00000000E+00  0.00000000E+00  0.00000000E+00
  0.00000000E+00  0.00000000E+00  0.00000000E+00  0.00000000E+00  0.00000000E+00
  0.00000000E+00  0.00000000E+00  0.00000000E+00  0.00000000E+00  0.00000000E+00
  0.00000000E+00  0.00000000E+00  0.00000000E+00  0.00000000E+00  0.00000000E+00
  0.00000000E+00  0.00000000E+00  0.00000000E+00  0.00000000E+00  0.00000000E+00
  0.00000000E+00  0.00000000E+00  0.00000000E+00  0.00000000E+00  0.00000000E+00
  0.00000000E+00  0.00000000E+00  0.00000000E+00 -7.59130084E-01  0.00000000E+00
  0.00000000E+00  0.00000000E+00  0.00000000E+00  1.26940102E+00  0.00000000E+00
  0.00000000E+00  0.00000000E+00  0.00000000E+00 -9.03966765E-01  0.00000000E+00
  0.00000000E+00  0.00000000E+00  0.00000000E+00  0.00000000E+00  0.00000000E+00
  0.00000000E+00  0.00000000E+00  0.00000000E+00  0.00000000E+00  0.00000000E+00
  0.00000000E+00  0.00000000E+00  0.00000000E+00  0.00000000E+00  1.18784798E-01
  0.00000000E+00  0.00000000E+00  2.32975845E-02  0.00000000E+00  0.00000000E+00
  7.82579113E-02  0.00000000E+00  0.00000000E+00  1.93925582E-01  0.00000000E+00
  0.00000000E+00  2.64867443E-01  0.00000000E+00  0.00000000E+00  2.82748577E-01
  0.00000000E+00  0.00000000E+00  2.61643351E-01  0.00000000E+00  0.00000000E+00
  1.98660678E-01  0.00000000E+00  0.00000000E+00  0.00000000E+00 -1.26322332E-03
  0.00000000E+00  0.00000000E+00  0.00000000E+00  0.00000000E+00 -3.44447780E-03
  0.00000000E+00  0.00000000E+00  0.00000000E+00  0.00000000E+00 -7.69230426E-03
  0.00000000E+00  0.00000000E+00  0.00000000E+00  0.00000000E+00  0.00000000E+00
  0.00000000E+00  5.29074311E-02  0.00000000E+00  0.00000000E+00  0.00000000E+00
  0.00000000E+00  0.00000000E+00  0.00000000E+00  0.00000000E+00  0.00000000E+00
  0.00000000E+00  0.00000000E+00  0.00000000E+00  2.71852550E-01  0.00000000E+00
  0.00000000E+00 -1.46316370E-01  0.00000000E+00  0.00000000E+00 -2.49342413E-01
  0.00000000E+00  0.00000000E+00 -2.70268750E-01  0.00000000E+00  0.00000000E+00
 -1.76484223E-01  0.00000000E+00  0.00000000E+00 -6.61138350E-02  0.00000000E+00
  0.00000000E+00  1.44090636E-01  0.00000000E+00  0.00000000E+00  2.92614448E-01
  0.00000000E+00  0.00000000E+00  0.00000000E+00 -1.54806012E-01  0.00000000E+00
  0.00000000E+00  0.00000000E+00  0.00000000E+00 -2.32384417E-01  0.00000000E+00
  0.00000000E+00  0.00000000E+00  0.00000000E+00 -2.21676353E-01  0.00000000E+00
  0.00000000E+00  0.00000000E+00  0.00000000E+00  0.00000000E+00  0.00000000E+00
  1.88024348E-01  0.00000000E+00  0.00000000E+00  0.00000000E+00  0.00000000E+00
  0.00000000E+00  0.00000000E+00  0.00000000E+00  0.00000000E+00  0.00000000E+00
  0.00000000E+00  0.00000000E+00  1.78569011E-01  0.00000000E+00  0.00000000E+00
 -1.07698467E-01  0.00000000E+00  0.00000000E+00 -1.70517856E-01  0.00000000E+00
  0.00000000E+00 -1.62744506E-01  0.00000000E+00  0.00000000E+00 -9.04814587E-02
  0.00000000E+00  0.00000000E+00 -1.98688506E-02  0.00000000E+00  0.00000000E+00
  1.02033716E-01  0.00000000E+00  0.00000000E+00  1.88519173E-01  0.00000000E+00
  0.00000000E+00  0.00000000E+00  3.02784512E-01  0.00000000E+00  0.00000000E+00
  0.00000000E+00  0.00000000E+00  4.26258362E-01  0.00000000E+00  0.00000000E+00
  0.00000000E+00  0.00000000E+00  3.54454333E-01  0.00000000E+00  0.00000000E+00
  0.00000000E+00  0.00000000E+00  0.00000000E+00  0.00000000E+00 -7.15304337E-02
  0.00000000E+00  0.00000000E+00  0.00000000E+00  0.00000000E+00  0.00000000E+00
  0.00000000E+00  0.00000000E+00  0.00000000E+00  0.00000000E+00  0.00000000E+00
  0.00000000E+00  2.85034705E-01  0.00000000E+00  0.00000000E+00  5.16036173E-01
  0.00000000E+00  0.00000000E+00  4.63720879E-01  0.00000000E+00  0.00000000E+00
 -2.52194587E-03  0.00000000E+00  0.00000000E+00 -2.20784396E-01  0.00000000E+00
  0.00000000E+00 -2.16620416E-01  0.00000000E+00  0.00000000E+00 -3.39712352E-02
  0.00000000E+00  0.00000000E+00  2.10629654E-01  0.00000000E+00  0.00000000E+00
  0.00000000E+00  4.58912165E-02  0.00000000E+00  0.00000000E+00  0.00000000E+00
  0.00000000E+00  3.96045183E-02  0.00000000E+00  0.00000000E+00  0.00000000E+00
  0.00000000E+00 -2.36279278E-03  0.00000000E+00  0.00000000E+00  0.00000000E+00
  0.00000000E+00  0.00000000E+00  0.00000000E+00  9.95606692E-02  0.00000000E+00
  0.00000000E+00  0.00000000E+00  0.00000000E+00  0.00000000E+00  0.00000000E+00
  0.00000000E+00  0.00000000E+00  0.00000000E+00  0.00000000E+00  0.00000000E+00
 -1.83703575E-01  0.00000000E+00  0.00000000E+00 -2.97088055E-02  0.00000000E+00
  0.00000000E+00 -8.40652893E-03  0.00000000E+00  0.00000000E+00  2.26773214E-02
  0.00000000E+00  0.00000000E+00  1.71942099E-02  0.00000000E+00  0.00000000E+00
  6.04022905E-03  0.00000000E+00  0.00000000E+00 -1.46683517E-02  0.00000000E+00
  0.00000000E+00 -1.02378741E-01  0.00000000E+00  0.00000000E+00  0.00000000E+00
  5.19411122E-01  0.00000000E+00  0.00000000E+00  0.00000000E+00  0.00000000E+00
  1.77789083E-01  0.00000000E+00  0.00000000E+00  0.00000000E+00  0.00000000E+00
 -3.70298289E-01  0.00000000E+00  0.00000000E+00  0.00000000E+00  0.00000000E+00
  0.00000000E+00  0.00000000E+00  6.63574648E-01  0.00000000E+00  0.00000000E+00
  0.00000000E+00  0.00000000E+00  0.00000000E+00  0.00000000E+00  0.00000000E+00
  0.00000000E+00  0.00000000E+00  0.00000000E+00  0.00000000E+00 -5.09202006E-01
  0.00000000E+00  0.00000000E+00  5.90792633E-01  0.00000000E+00  0.00000000E+00
 -1.89074350E-01  0.00000000E+00  0.00000000E+00 -5.30686791E-01  0.00000000E+00
  0.00000000E+00 -4.29688705E-02  0.00000000E+00  0.00000000E+00  2.79130531E-01
  0.00000000E+00  0.00000000E+00  3.98454486E-01  0.00000000E+00  0.00000000E+00
 -5.99786997E-02  0.00000000E+00  0.00000000E+00  0.00000000E+00 -1.70627396E-01
  0.00000000E+00  0.00000000E+00  0.00000000E+00  0.00000000E+00  3.55953252E-02
  0.00000000E+00  0.00000000E+00  0.00000000E+00  0.00000000E+00  1.47581691E-01
  0.00000000E+00  0.00000000E+00  0.00000000E+00  0.00000000E+00  0.00000000E+00
  0.00000000E+00  1.05727511E-01  0.00000000E+00  0.00000000E+00  0.00000000E+00
  0.00000000E+00  0.00000000E+00  0.00000000E+00  0.00000000E+00  0.00000000E+00
  0.00000000E+00  0.00000000E+00  0.00000000E+00 -4.78078064E-02  0.00000000E+00
  0.00000000E+00 -2.08104490E-01  0.00000000E+00  0.00000000E+00  1.00371713E-01
  0.00000000E+00  0.00000000E+00  1.70582951E-01  0.00000000E+00  0.00000000E+00
 -2.28921421E-02  0.00000000E+00  0.00000000E+00 -1.08936732E-01  0.00000000E+00
  0.00000000E+00 -8.39940880E-02  0.00000000E+00  0.00000000E+00 -2.35629546E-02
  0.00000000E+00  0.00000000E+00  0.00000000E+00 -6.45172568E-01  0.00000000E+00
  0.00000000E+00  0.00000000E+00  0.00000000E+00  2.35933122E-01  0.00000000E+00
  0.00000000E+00  0.00000000E+00  0.00000000E+00  5.21210618E-01  0.00000000E+00
  0.00000000E+00  0.00000000E+00  0.00000000E+00  0.00000000E+00  0.00000000E+00
  7.01630936E-01  0.00000000E+00  0.00000000E+00  0.00000000E+00  0.00000000E+00
  0.00000000E+00  0.00000000E+00  0.00000000E+00  0.00000000E+00  0.00000000E+00
  0.00000000E+00  0.00000000E+00 -6.11125417E-01  0.00000000E+00  0.00000000E+00
 -6.36833834E-01  0.00000000E+00  0.00000000E+00  7.48809743E-01  0.00000000E+00
  0.00000000E+00 -7.68094792E-02  0.00000000E+00  0.00000000E+00 -4.73477063E-01
  0.00000000E+00  0.00000000E+00 -1.12437812E-01  0.00000000E+00  0.00000000E+00
  5.76947025E-01  0.00000000E+00  0.00000000E+00  2.92555272E-01  0.00000000E+00
  0.00000000E+00  0.00000000E+00  8.86392055E-02  0.00000000E+00  0.00000000E+00
  0.00000000E+00  0.00000000E+00 -9.67409719E-02  0.00000000E+00  0.00000000E+00
  0.00000000E+00  0.00000000E+00 -8.33419650E-04  0.00000000E+00  0.00000000E+00
  0.00000000E+00  0.00000000E+00  0.00000000E+00  0.00000000E+00 -1.58329692E-01
  0.00000000E+00  0.00000000E+00  0.00000000E+00  0.00000000E+00  0.00000000E+00
  0.00000000E+00  0.00000000E+00  0.00000000E+00  0.00000000E+00  0.00000000E+00
  0.00000000E+00  5.48871467E-02  0.00000000E+00  0.00000000E+00 -7.39230326E-02
  0.00000000E+00  0.00000000E+00  1.28325927E-01  0.00000000E+00  0.00000000E+00
 -1.26228511E-01  0.00000000E+00  0.00000000E+00 -1.85547642E-02  0.00000000E+00
  0.00000000E+00  8.52163370E-02  0.00000000E+00  0.00000000E+00  4.33841084E-02
  0.00000000E+00  0.00000000E+00 -4.09672324E-02  0.00000000E+00  0.00000000E+00
  0.00000000E+00 -7.08713074E-01  0.00000000E+00  0.00000000E+00  0.00000000E+00
  0.00000000E+00  1.24529105E+00  0.00000000E+00  0.00000000E+00  0.00000000E+00
  0.00000000E+00 -9.94016401E-01  0.00000000E+00  0.00000000E+00  0.00000000E+00
  0.00000000E+00  0.00000000E+00  0.00000000E+00 -3.21431305E-01  0.00000000E+00
  0.00000000E+00  0.00000000E+00  0.00000000E+00  0.00000000E+00  0.00000000E+00
  0.00000000E+00  0.00000000E+00  0.00000000E+00  0.00000000E+00  0.00000000E+00
 -7.17073738E-01  0.00000000E+00  0.00000000E+00  4.23382691E-01  0.00000000E+00
  0.00000000E+00 -8.20867001E-01  0.00000000E+00  0.00000000E+00  1.05931560E+00
  0.00000000E+00  0.00000000E+00 -1.96978229E-01  0.00000000E+00  0.00000000E+00
 -7.70577347E-01  0.00000000E+00  0.00000000E+00  1.71133961E-01  0.00000000E+00
  0.00000000E+00  8.36969869E-01  0.00000000E+00  0.00000000E+00  0.00000000E+00
 -6.63119505E-02  0.00000000E+00  0.00000000E+00  0.00000000E+00  0.00000000E+00
  1.33870807E-01  0.00000000E+00  0.00000000E+00  0.00000000E+00  0.00000000E+00
 -1.39731257E-01  0.00000000E+00  0.00000000E+00  0.00000000E+00  0.00000000E+00
  0.00000000E+00  0.00000000E+00 -1.43064873E-01  0.00000000E+00  0.00000000E+00
  0.00000000E+00  0.00000000E+00  0.00000000E+00  0.00000000E+00  0.00000000E+00
  0.00000000E+00  0.00000000E+00  0.00000000E+00  0.00000000E+00 -9.00904794E-01
  0.00000000E+00  0.00000000E+00 -1.79228157E-01  0.00000000E+00  0.00000000E+00
  4.62736860E-01  0.00000000E+00  0.00000000E+00 -1.08226387E+00  0.00000000E+00
  0.00000000E+00  1.38154063E+00  0.00000000E+00  0.00000000E+00  1.11258343E-03
  0.00000000E+00  0.00000000E+00 -1.68270291E+00  0.00000000E+00  0.00000000E+00
  1.80935335E+00  0.00000000E+00  0.00000000E+00  0.00000000E+00 -9.90277006E-04
  0.00000000E+00  0.00000000E+00  0.00000000E+00  0.00000000E+00  2.88978373E-03
  0.00000000E+00  0.00000000E+00  0.00000000E+00  0.00000000E+00 -4.99476627E-03
  0.00000000E+00  0.00000000E+00  0.00000000E+00  0.00000000E+00  0.00000000E+00
  0.00000000E+00 -1.12188934E-02  0.00000000E+00  0.00000000E+00  0.00000000E+00
  0.00000000E+00  0.00000000E+00  0.00000000E+00  0.00000000E+00  0.00000000E+00
  0.00000000E+00  0.00000000E+00  0.00000000E+00 -4.92408020E-01  0.00000000E+00
  0.00000000E+00  1.49330653E-01  0.00000000E+00  0.00000000E+00 -4.50715774E-01
  0.00000000E+00  0.00000000E+00  1.50546653E+00  0.00000000E+00  0.00000000E+00
 -4.43065709E+00  0.00000000E+00  0.00000000E+00  5.12457649E+00  0.00000000E+00
  0.00000000E+00 -2.92825184E+00  0.00000000E+00  0.00000000E+00  1.44237030E+00
  0.00000000E+00  0.00000000E+00  0.00000000E+00  2.47500571E-03  0.00000000E+00
  0.00000000E+00  0.00000000E+00  0.00000000E+00 -8.73425973E-03  0.00000000E+00
  0.00000000E+00  0.00000000E+00  0.00000000E+00  1.83138624E-02  0.00000000E+00
  0.00000000E+00  0.00000000E+00  0.00000000E+00  0.00000000E+00  0.00000000E+00
  4.97951222E-02  0.00000000E+00  0.00000000E+00  0.00000000E+00  0.00000000E+00
  0.00000000E+00  0.00000000E+00  0.00000000E+00  0.00000000E+00  0.00000000E+00
  0.00000000E+00  0.00000000E+00  0.00000000E+00  1.18784798E-01  0.00000000E+00
  0.00000000E+00  2.32975845E-02  0.00000000E+00  0.00000000E+00  7.82579113E-02
  0.00000000E+00  0.00000000E+00  1.93925582E-01  0.00000000E+00  0.00000000E+00
  2.64867443E-01  0.00000000E+00  0.00000000E+00  2.82748577E-01  0.00000000E+00
  0.00000000E+00  2.61643351E-01  0.00000000E+00  0.00000000E+00  1.98660678E-01
  0.00000000E+00  0.00000000E+00  0.00000000E+00 -1.26322332E-03  0.00000000E+00
  0.00000000E+00  0.00000000E+00  0.00000000E+00 -3.44447780E-03  0.00000000E+00
  0.00000000E+00  0.00000000E+00  0.00000000E+00 -7.69230426E-03  0.00000000E+00
  0.00000000E+00  0.00000000E+00  0.00000000E+00  0.00000000E+00  0.00000000E+00
  5.29074311E-02  0.00000000E+00  0.00000000E+00  0.00000000E+00  0.00000000E+00
  0.00000000E+00  0.00000000E+00  0.00000000E+00  0.00000000E+00  0.00000000E+00
  0.00000000E+00  0.00000000E+00  2.71852550E-01  0.00000000E+00  0.00000000E+00
 -1.46316370E-01  0.00000000E+00  0.00000000E+00 -2.49342413E-01  0.00000000E+00
  0.00000000E+00 -2.70268750E-01  0.00000000E+00  0.00000000E+00 -1.76484223E-01
  0.00000000E+00  0.00000000E+00 -6.61138350E-02  0.00000000E+00  0.00000000E+00
  1.44090636E-01  0.00000000E+00  0.00000000E+00  2.92614448E-01  0.00000000E+00
  0.00000000E+00  0.00000000E+00 -1.54806012E-01  0.00000000E+00  0.00000000E+00
  0.00000000E+00  0.00000000E+00 -2.32384417E-01  0.00000000E+00  0.00000000E+00
  0.00000000E+00  0.00000000E+00 -2.21676353E-01  0.00000000E+00  0.00000000E+00
  0.00000000E+00  0.00000000E+00  0.00000000E+00  0.00000000E+00  1.88024348E-01
  0.00000000E+00  0.00000000E+00  0.00000000E+00  0.00000000E+00  0.00000000E+00
  0.00000000E+00  0.00000000E+00  0.00000000E+00  0.00000000E+00  0.00000000E+00
  0.00000000E+00  1.78569011E-01  0.00000000E+00  0.00000000E+00 -1.07698467E-01
  0.00000000E+00  0.00000000E+00 -1.70517856E-01  0.00000000E+00  0.00000000E+00
 -1.62744506E-01  0.00000000E+00  0.00000000E+00 -9.04814587E-02  0.00000000E+00
  0.00000000E+00 -1.98688506E-02  0.00000000E+00  0.00000000E+00  1.02033716E-01
  0.00000000E+00  0.00000000E+00  1.88519173E-01  0.00000000E+00  0.00000000E+00
  0.00000000E+00  3.02784512E-01  0.00000000E+00  0.00000000E+00  0.00000000E+00
  0.00000000E+00  4.26258362E-01  0.00000000E+00  0.00000000E+00  0.00000000E+00
  0.00000000E+00  3.54454333E-01  0.00000000E+00  0.00000000E+00  0.00000000E+00
  0.00000000E+00  0.00000000E+00  0.00000000E+00 -7.15304337E-02  0.00000000E+00
  0.00000000E+00  0.00000000E+00  0.00000000E+00  0.00000000E+00  0.00000000E+00
  0.00000000E+00  0.00000000E+00  0.00000000E+00  0.00000000E+00  0.00000000E+00
  2.85034705E-01  0.00000000E+00  0.00000000E+00  5.16036173E-01  0.00000000E+00
  0.00000000E+00  4.63720879E-01  0.00000000E+00  0.00000000E+00 -2.52194587E-03
  0.00000000E+00  0.00000000E+00 -2.20784396E-01  0.00000000E+00  0.00000000E+00
 -2.16620416E-01  0.00000000E+00  0.00000000E+00 -3.39712352E-02  0.00000000E+00
  0.00000000E+00  2.10629654E-01  0.00000000E+00  0.00000000E+00  0.00000000E+00
  4.58912165E-02  0.00000000E+00  0.00000000E+00  0.00000000E+00  0.00000000E+00
  3.96045183E-02  0.00000000E+00  0.00000000E+00  0.00000000E+00  0.00000000E+00
 -2.36279278E-03  0.00000000E+00  0.00000000E+00  0.00000000E+00  0.00000000E+00
  0.00000000E+00  0.00000000E+00  9.95606692E-02  0.00000000E+00  0.00000000E+00
  0.00000000E+00  0.00000000E+00  0.00000000E+00  0.00000000E+00  0.00000000E+00
  0.00000000E+00  0.00000000E+00  0.00000000E+00  0.00000000E+00 -1.83703575E-01
  0.00000000E+00  0.00000000E+00 -2.97088055E-02  0.00000000E+00  0.00000000E+00
 -8.40652893E-03  0.00000000E+00  0.00000000E+00  2.26773214E-02  0.00000000E+00
  0.00000000E+00  1.71942099E-02  0.00000000E+00  0.00000000E+00  6.04022905E-03
  0.00000000E+00  0.00000000E+00 -1.46683517E-02  0.00000000E+00  0.00000000E+00
 -1.02378741E-01  0.00000000E+00  0.00000000E+00  0.00000000E+00  5.19411122E-01
  0.00000000E+00  0.00000000E+00  0.00000000E+00  0.00000000E+00  1.77789083E-01
  0.00000000E+00  0.00000000E+00  0.00000000E+00  0.00000000E+00 -3.70298289E-01
  0.00000000E+00  0.00000000E+00  0.00000000E+00  0.00000000E+00  0.00000000E+00
  0.00000000E+00  6.63574648E-01  0.00000000E+00  0.00000000E+00  0.00000000E+00
  0.00000000E+00  0.00000000E+00  0.00000000E+00  0.00000000E+00  0.00000000E+00
  0.00000000E+00  0.00000000E+00  0.00000000E+00 -5.09202006E-01  0.00000000E+00
  0.00000000E+00  5.90792633E-01  0.00000000E+00  0.00000000E+00 -1.89074350E-01
  0.00000000E+00  0.00000000E+00 -5.30686791E-01  0.00000000E+00  0.00000000E+00
 -4.29688705E-02  0.00000000E+00  0.00000000E+00  2.79130531E-01  0.00000000E+00
  0.00000000E+00  3.98454486E-01  0.00000000E+00  0.00000000E+00 -5.99786997E-02
  0.00000000E+00  0.00000000E+00  0.00000000E+00 -1.70627396E-01  0.00000000E+00
  0.00000000E+00  0.00000000E+00  0.00000000E+00  3.55953252E-02  0.00000000E+00
  0.00000000E+00  0.00000000E+00  0.00000000E+00  1.47581691E-01  0.00000000E+00
  0.00000000E+00  0.00000000E+00  0.00000000E+00  0.00000000E+00  0.00000000E+00
  1.05727511E-01  0.00000000E+00  0.00000000E+00  0.00000000E+00  0.00000000E+00
  0.00000000E+00  0.00000000E+00  0.00000000E+00  0.00000000E+00  0.00000000E+00
  0.00000000E+00  0.00000000E+00 -4.78078064E-02  0.00000000E+00  0.00000000E+00
 -2.08104490E-01  0.00000000E+00  0.00000000E+00  1.00371713E-01  0.00000000E+00
  0.00000000E+00  1.70582951E-01  0.00000000E+00  0.00000000E+00 -2.28921421E-02
  0.00000000E+00  0.00000000E+00 -1.08936732E-01  0.00000000E+00  0.00000000E+00
 -8.39940880E-02  0.00000000E+00  0.00000000E+00 -2.35629546E-02  0.00000000E+00
  0.00000000E+00  0.00000000E+00 -6.45172568E-01  0.00000000E+00  0.00000000E+00
  0.00000000E+00  0.00000000E+00  2.35933122E-01  0.00000000E+00  0.00000000E+00
  0.00000000E+00  0.00000000E+00  5.21210618E-01  0.00000000E+00  0.00000000E+00
  0.00000000E+00  0.00000000E+00  0.00000000E+00  0.00000000E+00  7.01630936E-01
  0.00000000E+00  0.00000000E+00  0.00000000E+00  0.00000000E+00  0.00000000E+00
  0.00000000E+00  0.00000000E+00  0.00000000E+00  0.00000000E+00  0.00000000E+00
  0.00000000E+00 -6.11125417E-01  0.00000000E+00  0.00000000E+00 -6.36833834E-01
  0.00000000E+00  0.00000000E+00  7.48809743E-01  0.00000000E+00  0.00000000E+00
 -7.68094792E-02  0.00000000E+00  0.00000000E+00 -4.73477063E-01  0.00000000E+00
  0.00000000E+00 -1.12437812E-01  0.00000000E+00  0.00000000E+00  5.76947025E-01
  0.00000000E+00  0.00000000E+00  2.92555272E-01  0.00000000E+00  0.00000000E+00
  0.00000000E+00  8.86392055E-02  0.00000000E+00  0.00000000E+00  0.00000000E+00
  0.00000000E+00 -9.67409719E-02  0.00000000E+00  0.00000000E+00  0.00000000E+00
  0.00000000E+00 -8.33419650E-04  0.00000000E+00  0.00000000E+00  0.00000000E+00
  0.00000000E+00  0.00000000E+00  0.00000000E+00 -1.58329692E-01  0.00000000E+00
  0.00000000E+00  0.00000000E+00  0.00000000E+00  0.00000000E+00  0.00000000E+00
  0.00000000E+00  0.00000000E+00  0.00000000E+00  0.00000000E+00  0.00000000E+00
  5.48871467E-02  0.00000000E+00  0.00000000E+00 -7.39230326E-02  0.00000000E+00
  0.00000000E+00  1.28325927E-01  0.00000000E+00  0.00000000E+00 -1.26228511E-01
  0.00000000E+00  0.00000000E+00 -1.85547642E-02  0.00000000E+00  0.00000000E+00
  8.52163370E-02  0.00000000E+00  0.00000000E+00  4.33841084E-02  0.00000000E+00
  0.00000000E+00 -4.09672324E-02  0.00000000E+00  0.00000000E+00  0.00000000E+00
 -7.08713074E-01  0.00000000E+00  0.00000000E+00  0.00000000E+00  0.00000000E+00
  1.24529105E+00  0.00000000E+00  0.00000000E+00  0.00000000E+00  0.00000000E+00
 -9.94016401E-01  0.00000000E+00  0.00000000E+00  0.00000000E+00  0.00000000E+00
  0.00000000E+00  0.00000000E+00 -3.21431305E-01  0.00000000E+00  0.00000000E+00
  0.00000000E+00  0.00000000E+00  0.00000000E+00  0.00000000E+00  0.00000000E+00
  0.00000000E+00  0.00000000E+00  0.00000000E+00  0.00000000E+00 -7.17073738E-01
  0.00000000E+00  0.00000000E+00  4.23382691E-01  0.00000000E+00  0.00000000E+00
 -8.20867001E-01  0.00000000E+00  0.00000000E+00  1.05931560E+00  0.00000000E+00
  0.00000000E+00 -1.96978229E-01  0.00000000E+00  0.00000000E+00 -7.70577347E-01
  0.00000000E+00  0.00000000E+00  1.71133961E-01  0.00000000E+00  0.00000000E+00
  8.36969869E-01  0.00000000E+00  0.00000000E+00  0.00000000E+00 -6.63119505E-02
  0.00000000E+00  0.00000000E+00  0.00000000E+00  0.00000000E+00  1.33870807E-01
  0.00000000E+00  0.00000000E+00  0.00000000E+00  0.00000000E+00 -1.39731257E-01
  0.00000000E+00  0.00000000E+00  0.00000000E+00  0.00000000E+00  0.00000000E+00
  0.00000000E+00 -1.43064873E-01  0.00000000E+00  0.00000000E+00  0.00000000E+00
  0.00000000E+00  0.00000000E+00  0.00000000E+00  0.00000000E+00  0.00000000E+00
  0.00000000E+00  0.00000000E+00  0.00000000E+00 -9.00904794E-01  0.00000000E+00
  0.00000000E+00 -1.79228157E-01  0.00000000E+00  0.00000000E+00  4.62736860E-01
  0.00000000E+00  0.00000000E+00 -1.08226387E+00  0.00000000E+00  0.00000000E+00
  1.38154063E+00  0.00000000E+00  0.00000000E+00  1.11258343E-03  0.00000000E+00
  0.00000000E+00 -1.68270291E+00  0.00000000E+00  0.00000000E+00  1.80935335E+00
  0.00000000E+00  0.00000000E+00  0.00000000E+00 -9.90277006E-04  0.00000000E+00
  0.00000000E+00  0.00000000E+00  0.00000000E+00  2.88978373E-03  0.00000000E+00
  0.00000000E+00  0.00000000E+00  0.00000000E+00 -4.99476627E-03  0.00000000E+00
  0.00000000E+00  0.00000000E+00  0.00000000E+00  0.00000000E+00  0.00000000E+00
 -1.12188934E-02  0.00000000E+00  0.00000000E+00  0.00000000E+00  0.00000000E+00
  0.00000000E+00  0.00000000E+00  0.00000000E+00  0.00000000E+00  0.00000000E+00
  0.00000000E+00  0.00000000E+00 -4.92408020E-01  0.00000000E+00  0.00000000E+00
  1.49330653E-01  0.00000000E+00  0.00000000E+00 -4.50715774E-01  0.00000000E+00
  0.00000000E+00  1.50546653E+00  0.00000000E+00  0.00000000E+00 -4.43065709E+00
  0.00000000E+00  0.00000000E+00  5.12457649E+00  0.00000000E+00  0.00000000E+00
 -2.92825184E+00  0.00000000E+00  0.00000000E+00  1.44237030E+00  0.00000000E+00
  0.00000000E+00  0.00000000E+00  2.47500571E-03  0.00000000E+00  0.00000000E+00
  0.00000000E+00  0.00000000E+00 -8.73425973E-03  0.00000000E+00  0.00000000E+00
  0.00000000E+00  0.00000000E+00  1.83138624E-02  0.00000000E+00  0.00000000E+00
  0.00000000E+00  0.00000000E+00  0.00000000E+00  0.00000000E+00  4.97951222E-02
  0.00000000E+00
Total SCF Density                          R   N=        1485
  3.43294391E-01  6.41736678E-01  1.25310988E+00 -2.03386681E-01 -6.16766397E-01
  1.18962770E+00 -1.82527706E-01 -5.46668959E-01  1.06051565E+00  9.70303286E-01
  6.77507266E-02  2.19475269E-01 -5.95379139E-01 -6.72506683E-01  1.11075472E+00
  8.14227461E-02  2.61187859E-01 -6.70931599E-01 -7.37059460E-01  1.13322841E+00
  1.18182242E+00 -2.35588599E-02 -7.63858371E-02  2.06489986E-01  2.53918367E-01
 -5.08246486E-01 -6.63112894E-01  1.30051948E+00 -1.43017847E-02 -4.62681143E-02
  1.25289689E-01  1.52295537E-01 -2.97501210E-01 -3.74710564E-01  6.66938449E-01
  3.65792009E-01 -2.10260486E-04 -6.85602806E-04  1.81601819E-03  2.29918998E-03
 -4.84006462E-03 -6.73798406E-03  1.59856188E-02  1.07941578E-02  5.15663616E-04
  0.00000000E+00  0.00000000E+00  0.00000000E+00  0.00000000E+00  0.00000000E+00
  0.00000000E+00  0.00000000E+00  0.00000000E+00  0.00000000E+00  6.64816121E-04
  0.00000000E+00  0.00000000E+00  0.00000000E+00  0.00000000E+00  0.00000000E+00
  0.00000000E+00  0.00000000E+00  0.00000000E+00  0.00000000E+00  0.00000000E+00
  6.64816121E-04  8.85518050E-05  2.86013259E-04 -7.85519451E-04 -9.50609233E-04
  1.84149271E-03  2.24865824E-03 -3.56185917E-03 -1.70265565E-03 -2.58276878E-05
  0.00000000E+00  0.00000000E+00  1.10721799E-05  0.00000000E+00  0.00000000E+00
  0.00000000E+00  0.00000000E+00  0.00000000E+00  0.00000000E+00  0.00000000E+00
  0.00000000E+00  0.00000000E+00  4.28548622E-04  0.00000000E+00  0.00000000E+00
  3.79623775E-02  0.00000000E+00  0.00000000E+00  0.00000000E+00  0.00000000E+00
  0.00000000E+00  0.00000000E+00  0.00000000E+00  0.00000000E+00  0.00000000E+00
  0.00000000E+00  4.28548622E-04  0.00000000E+00  0.00000000E+00  3.79623775E-02
 -6.24708386E-05 -1.96618943E-04  5.08869137E-04  6.36036998E-04 -1.32429134E-03
 -1.40244489E-03  2.79911063E-03  3.74399758E-03  2.90420442E-04  0.00000000E+00
  0.00000000E+00 -5.32988006E-05  0.00000000E+00  0.00000000E+00  3.78221892E-02
  0.00000000E+00  0.00000000E+00  0.00000000E+00  0.00000000E+00  0.00000000E+00
  0.00000000E+00  0.00000000E+00  0.00000000E+00  0.00000000E+00  3.61431184E-03
  0.00000000E+00  0.00000000E+00  2.81628112E-01  0.00000000E+00  0.00000000E+00
  2.09248377E+00  0.00000000E+00  0.00000000E+00  0.00000000E+00  0.00000000E+00
  0.00000000E+00  0.00000000E+00  0.00000000E+00  0.00000000E+00  0.00000000E+00
  0.00000000E+00  3.61431184E-03  0.00000000E+00  0.00000000E+00  2.81628112E-01
  0.00000000E+00  0.00000000E+00  2.09248377E+00 -4.64273275E-04 -1.50794511E-03
  4.08658777E-03  5.15355629E-03 -1.08858384E-02 -1.15567406E-02  2.31248359E-02
  3.09257014E-02  2.43249381E-03  0.00000000E+00  0.00000000E+00 -3.83012270E-04
  0.00000000E+00  0.00000000E+00  2.80485248E-01  0.00000000E+00  0.00000000E+00
  2.08314509E+00  0.00000000E+00  0.00000000E+00  0.00000000E+00  0.00000000E+00
  0.00000000E+00  0.00000000E+00  0.00000000E+00  0.00000000E+00  0.00000000E+00
 -1.09808833E-02  0.00000000E+00  0.00000000E+00 -9.24896936E-02  0.00000000E+00
  0.00000000E+00 -7.55497486E-01  0.00000000E+00  0.00000000E+00  1.73144764E+00
  0.00000000E+00  0.00000000E+00  0.00000000E+00  0.00000000E+00  0.00000000E+00
  0.00000000E+00  0.00000000E+00  0.00000000E+00  0.00000000E+00  0.00000000E+00
 -1.09808833E-02  0.00000000E+00  0.00000000E+00 -9.24896936E-02  0.00000000E+00
  0.00000000E+00 -7.55497486E-01  0.00000000E+00  0.00000000E+00  1.73144764E+00
  1.24117833E-03  4.01452474E-03 -1.08184818E-02 -1.36526837E-02  2.84268139E-02
  3.09783137E-02 -6.07529680E-02 -8.12980332E-02 -7.05200139E-03  0.00000000E+00
  0.00000000E+00 -1.46603357E-04  0.00000000E+00  0.00000000E+00 -8.94881886E-02
  0.00000000E+00  0.00000000E+00 -7.30746050E-01  0.00000000E+00  0.00000000E+00
  1.66634916E+00  0.00000000E+00  0.00000000E+00  0.00000000E+00  0.00000000E+00
  0.00000000E+00  0.00000000E+00  0.00000000E+00  0.00000000E+00  0.00000000E+00
 -4.10001898E-03  0.00000000E+00  0.00000000E+00 -3.27932749E-02  0.00000000E+00
  0.00000000E+00 -2.62731509E-01  0.00000000E+00  0.00000000E+00  5.03078322E-01
  0.00000000E+00  0.00000000E+00  1.48713346E-01  0.00000000E+00  0.00000000E+00
  0.00000000E+00  0.00000000E+00  0.00000000E+00  0.00000000E+00  0.00000000E+00
  0.00000000E+00  0.00000000E+00  0.00000000E+00 -4.10001898E-03  0.00000000E+00
  0.00000000E+00 -3.27932749E-02  0.00000000E+00  0.00000000E+00 -2.62731509E-01
  0.00000000E+00  0.00000000E+00  5.03078322E-01  0.00000000E+00  0.00000000E+00
  1.48713346E-01  2.95748499E-04  9.67387913E-04 -2.67392151E-03 -3.56266166E-03
  8.06537276E-03  9.09782058E-03 -2.07025614E-02 -3.07038257E-02 -2.74266179E-03
  0.00000000E+00  0.00000000E+00 -5.94718025E-05  0.00000000E+00  0.00000000E+00
 -3.19737070E-02  0.00000000E+00  0.00000000E+00 -2.55910204E-01  0.00000000E+00
  0.00000000E+00  4.83733819E-01  0.00000000E+00  0.00000000E+00  1.43066793E-01
  0.00000000E+00  0.00000000E+00  0.00000000E+00  0.00000000E+00  0.00000000E+00
  0.00000000E+00  0.00000000E+00  0.00000000E+00  0.00000000E+00  9.02912943E-03
  0.00000000E+00  0.00000000E+00  5.98663488E-03  0.00000000E+00  0.00000000E+00
  4.78037998E-02  0.00000000E+00  0.00000000E+00 -9.51587980E-02  0.00000000E+00
  0.00000000E+00 -4.11104423E-02  0.00000000E+00  0.00000000E+00  1.24806845E-01
  0.00000000E+00  0.00000000E+00  0.00000000E+00  0.00000000E+00  0.00000000E+00
  0.00000000E+00  0.00000000E+00  0.00000000E+00  0.00000000E+00  0.00000000E+00
  9.02912943E-03  0.00000000E+00  0.00000000E+00  5.98663488E-03  0.00000000E+00
  0.00000000E+00  4.78037998E-02  0.00000000E+00  0.00000000E+00 -9.51587980E-02
  0.00000000E+00  0.00000000E+00 -4.11104423E-02  0.00000000E+00  0.00000000E+00
  1.24806845E-01 -8.32996230E-04 -2.70444896E-03  7.30265656E-03  9.28752986E-03
 -1.93022615E-02 -2.40688162E-02  4.87569288E-02  6.87924886E-02  5.79717817E-03
  0.00000000E+00  0.00000000E+00  1.41733350E-04  0.00000000E+00  0.00000000E+00
  3.83577772E-03  0.00000000E+00  0.00000000E+00  2.99751692E-02  0.00000000E+00
  0.00000000E+00 -4.73251925E-02  0.00000000E+00  0.00000000E+00 -2.56517442E-02
  0.00000000E+00  0.00000000E+00  8.98080739E-02  0.00000000E+00  0.00000000E+00
  0.00000000E+00  0.00000000E+00  0.00000000E+00  0.00000000E+00  0.00000000E+00
  0.00000000E+00  0.00000000E+00  2.12766789E-02  0.00000000E+00  0.00000000E+00
  1.53714844E-02  0.00000000E+00  0.00000000E+00  1.27625583E-01  0.00000000E+00
  0.00000000E+00 -3.48244899E-01  0.00000000E+00  0.00000000E+00 -1.30663227E-01
  0.00000000E+00  0.00000000E+00  2.89252427E-01  0.00000000E+00  0.00000000E+00
  6.81044423E-01  0.00000000E+00  0.00000000E+00  0.00000000E+00  0.00000000E+00
  0.00000000E+00  0.00000000E+00  0.00000000E+00  0.00000000E+00  0.00000000E+00
  0.00000000E+00  2.12766789E-02  0.00000000E+00  0.00000000E+00  1.53714844E-02
  0.00000000E+00  0.00000000E+00  1.27625583E-01  0.00000000E+00  0.00000000E+00
 -3.48244899E-01  0.00000000E+00  0.00000000E+00 -1.30663227E-01  0.00000000E+00
  0.00000000E+00  2.89252427E-01  0.00000000E+00  0.00000000E+00  6.81044423E-01
 -2.45614330E-03 -7.94340094E-03  2.15788719E-02  2.69578371E-02 -5.45860644E-02
 -6.64359881E-02  1.21771544E-01  1.51756112E-01  1.20885209E-02  0.00000000E+00
  0.00000000E+00  2.31870843E-04  0.00000000E+00  0.00000000E+00  8.91739969E-03
  0.00000000E+00  0.00000000E+00  7.42930745E-02  0.00000000E+00  0.00000000E+00
 -2.08038702E-01  0.00000000E+00  0.00000000E+00 -8.28458556E-02  0.00000000E+00
  0.00000000E+00  1.79373055E-01  0.00000000E+00  0.00000000E+00  3.67222750E-01
  0.00000000E+00  0.00000000E+00  0.00000000E+00  0.00000000E+00  0.00000000E+00
  0.00000000E+00  0.00000000E+00  0.00000000E+00  0.00000000E+00  1.31447368E-02
  0.00000000E+00  0.00000000E+00  1.03439379E-02  0.00000000E+00  0.00000000E+00
  8.51198453E-02  0.00000000E+00  0.00000000E+00 -2.16899546E-01  0.00000000E+00
  0.00000000E+00 -8.13572187E-02  0.00000000E+00  0.00000000E+00  1.78710541E-01
  0.00000000E+00  0.00000000E+00  4.20787147E-01  0.00000000E+00  0.00000000E+00
  2.60005099E-01  0.00000000E+00  0.00000000E+00  0.00000000E+00  0.00000000E+00
  0.00000000E+00  0.00000000E+00  0.00000000E+00  0.00000000E+00  0.00000000E+00
  0.00000000E+00  1.31447368E-02  0.00000000E+00  0.00000000E+00  1.03439379E-02
  0.00000000E+00  0.00000000E+00  8.51198453E-02  0.00000000E+00  0.00000000E+00
 -2.16899546E-01  0.00000000E+00  0.00000000E+00 -8.13572187E-02  0.00000000E+00
  0.00000000E+00  1.78710541E-01  0.00000000E+00  0.00000000E+00  4.20787147E-01
  0.00000000E+00  0.00000000E+00  2.60005099E-01 -1.20713860E-03 -3.91271529E-03
  1.05366529E-02  1.31308728E-02 -2.66017865E-02 -3.35675540E-02  6.59725404E-02
  6.73959742E-02  4.79921844E-03  0.00000000E+00  0.00000000E+00  3.10536752E-05
  0.00000000E+00  0.00000000E+00  4.05337654E-03  0.00000000E+00  0.00000000E+00
  3.31265439E-02  0.00000000E+00  0.00000000E+00 -7.98837185E-02  0.00000000E+00
  0.00000000E+00 -3.18058596E-02  0.00000000E+00  0.00000000E+00  6.83350544E-02
  0.00000000E+00  0.00000000E+00  1.40174218E-01  0.00000000E+00  0.00000000E+00
  5.38359593E-02  8.43210284E-05  2.84610075E-04 -8.91224077E-04 -4.31568741E-04
 -3.26405100E-05  5.64483593E-03 -7.03635154E-03  4.64156265E-03  1.93359159E-03
  0.00000000E+00  0.00000000E+00  3.88484182E-04  0.00000000E+00  0.00000000E+00
  7.63900875E-04  0.00000000E+00  0.00000000E+00  6.29999729E-03  0.00000000E+00
  0.00000000E+00 -1.64310621E-02  0.00000000E+00  0.00000000E+00 -6.98167463E-03
  0.00000000E+00  0.00000000E+00  1.46300767E-02  0.00000000E+00  0.00000000E+00
  2.99295483E-02  0.00000000E+00  0.00000000E+00  7.12468940E-03  1.31043748E+00
  0.00000000E+00  0.00000000E+00  0.00000000E+00  0.00000000E+00  0.00000000E+00
  0.00000000E+00  0.00000000E+00  0.00000000E+00  0.00000000E+00  2.00851385E-04
  0.00000000E+00  0.00000000E+00  8.60425723E-05  0.00000000E+00  0.00000000E+00
  7.00755603E-04  0.00000000E+00  0.00000000E+00 -1.79975979E-03  0.00000000E+00
  0.00000000E+00 -2.08035826E-03  0.00000000E+00  0.00000000E+00  2.58752635E-03
  0.00000000E+00  0.00000000E+00  5.73087753E-03  0.00000000E+00  0.00000000E+00
  4.17462367E-03  0.00000000E+00  0.00000000E+00  0.00000000E+00  1.30922833E+00
  0.00000000E+00  0.00000000E+00  0.00000000E+00  0.00000000E+00  0.00000000E+00
  0.00000000E+00  0.00000000E+00  0.00000000E+00  0.00000000E+00  0.00000000E+00
  2.00851385E-04  0.00000000E+00  0.00000000E+00  8.60425723E-05  0.00000000E+00
  0.00000000E+00  7.00755603E-04  0.00000000E+00  0.00000000E+00 -1.79975979E-03
  0.00000000E+00  0.00000000E+00 -2.08035826E-03  0.00000000E+00  0.00000000E+00
  2.58752635E-03  0.00000000E+00  0.00000000E+00  5.73087753E-03  0.00000000E+00
  0.00000000E+00  4.17462367E-03  0.00000000E+00  0.00000000E+00  0.00000000E+00
  1.30922833E+00 -4.86772894E-17 -1.45892955E-16  1.18557508E-16  1.62909508E-15
 -3.95491372E-15  3.03229664E-15 -2.17274115E-15  2.89612084E-15 -2.89698820E-16
  0.00000000E+00  0.00000000E+00  9.69629108E-16  0.00000000E+00  0.00000000E+00
  1.60190871E-17  0.00000000E+00  0.00000000E+00  3.21357524E-16  0.00000000E+00
  0.00000000E+00 -1.20216337E-15  0.00000000E+00  0.00000000E+00  4.43221848E-15
  0.00000000E+00  0.00000000E+00 -6.22592256E-15  0.00000000E+00  0.00000000E+00
  4.55538385E-15  0.00000000E+00  0.00000000E+00 -3.07523104E-15 -3.33066907E-16
  0.00000000E+00  0.00000000E+00  1.31164917E+00  0.00000000E+00  0.00000000E+00
  0.00000000E+00  0.00000000E+00  0.00000000E+00  0.00000000E+00  0.00000000E+00
  0.00000000E+00  0.00000000E+00  0.00000000E+00  0.00000000E+00  0.00000000E+00
  0.00000000E+00  0.00000000E+00  0.00000000E+00  0.00000000E+00  0.00000000E+00
  0.00000000E+00  0.00000000E+00  0.00000000E+00  0.00000000E+00  0.00000000E+00
  0.00000000E+00  0.00000000E+00  0.00000000E+00  0.00000000E+00  0.00000000E+00
  0.00000000E+00  0.00000000E+00  0.00000000E+00  0.00000000E+00  0.00000000E+00
  0.00000000E+00  0.00000000E+00  0.00000000E+00  0.00000000E+00  0.00000000E+00
  1.31164813E+00  2.01244776E-05  6.52738418E-05 -1.54372350E-04  1.24615125E-04
 -8.66264873E-04  7.87592746E-04  6.58555572E-04  8.08854941E-04  4.54035391E-04
  0.00000000E+00  0.00000000E+00  1.19605608E-04  0.00000000E+00  0.00000000E+00
  5.12074646E-05  0.00000000E+00  0.00000000E+00  4.12223713E-04  0.00000000E+00
  0.00000000E+00 -8.67174336E-04  0.00000000E+00  0.00000000E+00 -4.33697313E-04
  0.00000000E+00  0.00000000E+00  4.79392269E-04  0.00000000E+00  0.00000000E+00
  1.12293080E-03  0.00000000E+00  0.00000000E+00 -1.07266640E-03  4.87902292E-01
  0.00000000E+00  0.00000000E+00 -4.34837351E-16  0.00000000E+00  1.81964726E-01
  0.00000000E+00  0.00000000E+00  0.00000000E+00  0.00000000E+00  0.00000000E+00
  0.00000000E+00  0.00000000E+00  0.00000000E+00  0.00000000E+00  5.46874516E-05
  0.00000000E+00  0.00000000E+00  6.61789573E-05  0.00000000E+00  0.00000000E+00
  5.26305886E-04  0.00000000E+00  0.00000000E+00 -9.97985035E-04  0.00000000E+00
  0.00000000E+00 -8.38512309E-04  0.00000000E+00  0.00000000E+00  6.68450148E-04
  0.00000000E+00  0.00000000E+00  1.48957980E-03  0.00000000E+00  0.00000000E+00
  1.15761736E-03  0.00000000E+00  0.00000000E+00  0.00000000E+00  4.88023831E-01
  0.00000000E+00  0.00000000E+00  0.00000000E+00  0.00000000E+00  1.81915124E-01
  0.00000000E+00  0.00000000E+00  0.00000000E+00  0.00000000E+00  0.00000000E+00
  0.00000000E+00  0.00000000E+00  0.00000000E+00  0.00000000E+00  0.00000000E+00
  5.46874516E-05  0.00000000E+00  0.00000000E+00  6.61789573E-05  0.00000000E+00
  0.00000000E+00  5.26305886E-04  0.00000000E+00  0.00000000E+00 -9.97985035E-04
  0.00000000E+00  0.00000000E+00 -8.38512309E-04  0.00000000E+00  0.00000000E+00
  6.68450148E-04  0.00000000E+00  0.00000000E+00  1.48957980E-03  0.00000000E+00
  0.00000000E+00  1.15761736E-03  0.00000000E+00  0.00000000E+00  0.00000000E+00
  4.88023831E-01  0.00000000E+00  0.00000000E+00  0.00000000E+00  0.00000000E+00
  1.81915124E-01  3.79216650E-17  1.11804961E-16 -3.34212096E-16  1.87614410E-16
 -8.17922119E-16  1.86138539E-15 -1.57672811E-15  6.81990272E-16 -1.14302014E-16
  0.00000000E+00  0.00000000E+00  3.62645298E-16  0.00000000E+00  0.00000000E+00
 -1.75166413E-18  0.00000000E+00  0.00000000E+00  6.54722587E-17  0.00000000E+00
  0.00000000E+00 -4.98407739E-16  0.00000000E+00  0.00000000E+00  1.63107375E-15
  0.00000000E+00  0.00000000E+00 -2.31466322E-15  0.00000000E+00  0.00000000E+00
  1.67720655E-15  0.00000000E+00  0.00000000E+00 -1.16053001E-15  3.88578059E-16
  0.00000000E+00  0.00000000E+00  4.87167939E-01  0.00000000E+00  2.08166817E-17
  0.00000000E+00  0.00000000E+00  1.80942135E-01  0.00000000E+00  0.00000000E+00
  0.00000000E+00  0.00000000E+00  0.00000000E+00  0.00000000E+00  0.00000000E+00
  0.00000000E+00  0.00000000E+00  0.00000000E+00  0.00000000E+00  0.00000000E+00
  0.00000000E+00  0.00000000E+00  0.00000000E+00  0.00000000E+00  0.00000000E+00
  0.00000000E+00  0.00000000E+00  0.00000000E+00  0.00000000E+00  0.00000000E+00
  0.00000000E+00  0.00000000E+00  0.00000000E+00  0.00000000E+00  0.00000000E+00
  0.00000000E+00  0.00000000E+00  0.00000000E+00  0.00000000E+00  0.00000000E+00
  0.00000000E+00  0.00000000E+00  0.00000000E+00  0.00000000E+00  0.00000000E+00
  4.87168418E-01  0.00000000E+00  0.00000000E+00  0.00000000E+00  0.00000000E+00
  1.80942634E-01 -2.30133391E-04 -7.45734967E-04  1.94060081E-03  2.29358935E-03
 -4.25051632E-03 -5.60681983E-03  1.12851201E-02 -3.14347364E-03 -8.66955330E-04
  0.00000000E+00  0.00000000E+00 -7.04886684E-05  0.00000000E+00  0.00000000E+00
 -9.70032209E-04  0.00000000E+00  0.00000000E+00 -8.00076861E-03  0.00000000E+00
  0.00000000E+00  2.07391900E-02  0.00000000E+00  0.00000000E+00  8.21270026E-03
  0.00000000E+00  0.00000000E+00 -1.71329387E-02  0.00000000E+00  0.00000000E+00
 -3.47129003E-02  0.00000000E+00  0.00000000E+00 -1.31185697E-02  6.75177195E-02
  0.00000000E+00  0.00000000E+00  8.09537622E-17  0.00000000E+00  2.62533956E-02
  0.00000000E+00  0.00000000E+00  4.42354486E-17  0.00000000E+00  7.51178774E-03
  0.00000000E+00  0.00000000E+00  0.00000000E+00  0.00000000E+00  0.00000000E+00
  0.00000000E+00  0.00000000E+00  0.00000000E+00  0.00000000E+00 -6.52866207E-04
  0.00000000E+00  0.00000000E+00 -5.19163011E-04  0.00000000E+00  0.00000000E+00
 -4.28447656E-03  0.00000000E+00  0.00000000E+00  1.11422660E-02  0.00000000E+00
  0.00000000E+00  4.07540526E-03  0.00000000E+00  0.00000000E+00 -8.87219060E-03
  0.00000000E+00  0.00000000E+00 -2.09348431E-02  0.00000000E+00  0.00000000E+00
 -1.29023217E-02  0.00000000E+00  0.00000000E+00  0.00000000E+00  6.87225683E-02
  0.00000000E+00  0.00000000E+00  0.00000000E+00  0.00000000E+00  2.56368026E-02
  0.00000000E+00  0.00000000E+00  0.00000000E+00  0.00000000E+00  4.26959235E-03
  0.00000000E+00  0.00000000E+00  0.00000000E+00  0.00000000E+00  0.00000000E+00
  0.00000000E+00  0.00000000E+00  0.00000000E+00  0.00000000E+00  0.00000000E+00
 -6.52866207E-04  0.00000000E+00  0.00000000E+00 -5.19163011E-04  0.00000000E+00
  0.00000000E+00 -4.28447656E-03  0.00000000E+00  0.00000000E+00  1.11422660E-02
  0.00000000E+00  0.00000000E+00  4.07540526E-03  0.00000000E+00  0.00000000E+00
 -8.87219060E-03  0.00000000E+00  0.00000000E+00 -2.09348431E-02  0.00000000E+00
  0.00000000E+00 -1.29023217E-02  0.00000000E+00  0.00000000E+00  0.00000000E+00
  6.87225683E-02  0.00000000E+00  0.00000000E+00  0.00000000E+00  0.00000000E+00
  2.56368026E-02  0.00000000E+00  0.00000000E+00  0.00000000E+00  0.00000000E+00
  4.26959235E-03  1.03676833E-17  4.48046548E-17 -1.81495444E-16 -1.63172427E-16
  3.54967791E-16  8.94466792E-16 -1.62977271E-15 -6.63206469E-16 -3.83265468E-17
  0.00000000E+00  0.00000000E+00  5.41389579E-17  0.00000000E+00  0.00000000E+00
 -2.45029691E-17  0.00000000E+00  0.00000000E+00 -1.89952221E-16  0.00000000E+00
  0.00000000E+00  4.04190570E-16  0.00000000E+00  0.00000000E+00  3.75567633E-16
  0.00000000E+00  0.00000000E+00 -4.40619763E-16  0.00000000E+00  0.00000000E+00
 -5.20417043E-17  0.00000000E+00  0.00000000E+00 -2.91433544E-16 -1.63064007E-16
  0.00000000E+00  0.00000000E+00  6.79992285E-02  0.00000000E+00 -7.80625564E-17
  0.00000000E+00  0.00000000E+00  2.52560249E-02  0.00000000E+00 -2.16840434E-18
  0.00000000E+00  0.00000000E+00  3.52525293E-03  0.00000000E+00  0.00000000E+00
  0.00000000E+00  0.00000000E+00  0.00000000E+00  0.00000000E+00  0.00000000E+00
  0.00000000E+00  0.00000000E+00  0.00000000E+00  0.00000000E+00  0.00000000E+00
  0.00000000E+00  0.00000000E+00  0.00000000E+00  0.00000000E+00  0.00000000E+00
  0.00000000E+00  0.00000000E+00  0.00000000E+00  0.00000000E+00  0.00000000E+00
  0.00000000E+00  0.00000000E+00  0.00000000E+00  0.00000000E+00  0.00000000E+00
  0.00000000E+00  0.00000000E+00  0.00000000E+00  0.00000000E+00  0.00000000E+00
  0.00000000E+00  0.00000000E+00  0.00000000E+00  0.00000000E+00  0.00000000E+00
  6.79992719E-02  0.00000000E+00  0.00000000E+00  0.00000000E+00  0.00000000E+00
  2.52560857E-02  0.00000000E+00  0.00000000E+00  0.00000000E+00  0.00000000E+00
  3.52526021E-03 -1.03557455E-03 -3.35361672E-03  9.04038473E-03  1.07093616E-02
 -2.02499675E-02 -2.69156376E-02  4.83187715E-02 -1.25104635E-02 -3.85267453E-03
  0.00000000E+00  0.00000000E+00 -3.70128277E-04  0.00000000E+00  0.00000000E+00
 -3.90515350E-03  0.00000000E+00  0.00000000E+00 -3.21807722E-02  0.00000000E+00
  0.00000000E+00  8.30250112E-02  0.00000000E+00  0.00000000E+00  3.33546690E-02
  0.00000000E+00  0.00000000E+00 -7.15276190E-02  0.00000000E+00  0.00000000E+00
 -1.44702325E-01  0.00000000E+00  0.00000000E+00 -5.37716619E-02 -9.59292006E-03
  0.00000000E+00  0.00000000E+00  2.46330734E-16  0.00000000E+00  8.82749555E-04
  0.00000000E+00  0.00000000E+00  3.84891771E-17  0.00000000E+00  1.56125494E-02
  0.00000000E+00  0.00000000E+00  1.82145965E-17  0.00000000E+00  6.44124086E-02
 -6.30145651E-04 -2.03668423E-03  5.61353932E-03  6.34671991E-03 -1.12558955E-02
 -1.57136079E-02  2.34464681E-02 -5.52680203E-02 -7.74241386E-03  0.00000000E+00
  0.00000000E+00 -4.95692441E-04  0.00000000E+00  0.00000000E+00 -7.17174331E-03
  0.00000000E+00  0.00000000E+00 -5.90941021E-02  0.00000000E+00  0.00000000E+00
  1.52371533E-01  0.00000000E+00  0.00000000E+00  6.10830444E-02  0.00000000E+00
  0.00000000E+00 -1.31443553E-01  0.00000000E+00  0.00000000E+00 -2.67023180E-01
  0.00000000E+00  0.00000000E+00 -1.00207689E-01 -2.77959453E-02  0.00000000E+00
  0.00000000E+00  3.60822483E-16  0.00000000E+00 -2.48072788E-03  0.00000000E+00
  0.00000000E+00  7.26415456E-17  0.00000000E+00  2.70277674E-02  0.00000000E+00
  0.00000000E+00  1.04083409E-16  0.00000000E+00  1.13807764E-01  2.04205862E-01
  1.02091688E-03  3.29803915E-03 -9.00705473E-03 -1.10679612E-02  2.18890115E-02
  2.65495469E-02 -4.49526312E-02 -4.15769912E-02 -2.73279448E-03  0.00000000E+00
  0.00000000E+00  7.64618852E-06  0.00000000E+00  0.00000000E+00 -1.97120188E-03
  0.00000000E+00  0.00000000E+00 -1.63575880E-02  0.00000000E+00  0.00000000E+00
  4.44729223E-02  0.00000000E+00  0.00000000E+00  1.75856034E-02  0.00000000E+00
  0.00000000E+00 -3.76954475E-02  0.00000000E+00  0.00000000E+00 -7.75672229E-02
  0.00000000E+00  0.00000000E+00 -2.98955457E-02 -7.98609350E-03  0.00000000E+00
  0.00000000E+00 -1.06251813E-15  0.00000000E+00 -9.58372752E-04  0.00000000E+00
  0.00000000E+00 -3.79524970E-16  0.00000000E+00  6.87969545E-03  0.00000000E+00
  0.00000000E+00  2.81892565E-17  0.00000000E+00  2.90773439E-02  5.46776998E-02
  1.66900681E-02  0.00000000E+00  0.00000000E+00  0.00000000E+00  0.00000000E+00
  0.00000000E+00  0.00000000E+00  0.00000000E+00  0.00000000E+00  0.00000000E+00
  7.81788419E-04  0.00000000E+00  0.00000000E+00  5.98647925E-04  0.00000000E+00
  0.00000000E+00  4.93455099E-03  0.00000000E+00  0.00000000E+00 -1.27494511E-02
  0.00000000E+00  0.00000000E+00 -4.79551771E-03  0.00000000E+00  0.00000000E+00
  1.06332423E-02  0.00000000E+00  0.00000000E+00  2.50259747E-02  0.00000000E+00
  0.00000000E+00  1.54635582E-02  0.00000000E+00  0.00000000E+00  0.00000000E+00
  9.16550658E-04  0.00000000E+00  0.00000000E+00  0.00000000E+00  0.00000000E+00
  3.17885986E-04  0.00000000E+00  0.00000000E+00  0.00000000E+00  0.00000000E+00
 -7.32143419E-04  0.00000000E+00  0.00000000E+00  0.00000000E+00  0.00000000E+00
  0.00000000E+00  0.00000000E+00  9.20038250E-04  0.00000000E+00  0.00000000E+00
  0.00000000E+00  0.00000000E+00  0.00000000E+00  0.00000000E+00  0.00000000E+00
  0.00000000E+00  0.00000000E+00  0.00000000E+00  7.81788419E-04  0.00000000E+00
  0.00000000E+00  5.98647925E-04  0.00000000E+00  0.00000000E+00  4.93455099E-03
  0.00000000E+00  0.00000000E+00 -1.27494511E-02  0.00000000E+00  0.00000000E+00
 -4.79551771E-03  0.00000000E+00  0.00000000E+00  1.06332423E-02  0.00000000E+00
  0.00000000E+00  2.50259747E-02  0.00000000E+00  0.00000000E+00  1.54635582E-02
  0.00000000E+00  0.00000000E+00  0.00000000E+00  9.16550658E-04  0.00000000E+00
  0.00000000E+00  0.00000000E+00  0.00000000E+00  3.17885986E-04  0.00000000E+00
  0.00000000E+00  0.00000000E+00  0.00000000E+00 -7.32143419E-04  0.00000000E+00
  0.00000000E+00  0.00000000E+00  0.00000000E+00  0.00000000E+00  0.00000000E+00
  9.20038250E-04 -3.97831534E-04 -1.28480723E-03  3.55806450E-03  4.30080663E-03
 -8.37687241E-03 -1.04644373E-02  1.68032261E-02  1.28508323E-03 -6.75683354E-04
  0.00000000E+00  0.00000000E+00 -9.34392416E-05  0.00000000E+00  0.00000000E+00
 -6.98327720E-04  0.00000000E+00  0.00000000E+00 -5.76993106E-03  0.00000000E+00
  0.00000000E+00  1.52419377E-02  0.00000000E+00  0.00000000E+00  6.24934305E-03
  0.00000000E+00  0.00000000E+00 -1.39439434E-02  0.00000000E+00  0.00000000E+00
 -2.80084117E-02  0.00000000E+00  0.00000000E+00 -1.03021233E-02  2.34576254E-04
  0.00000000E+00  0.00000000E+00  1.64622547E-16  0.00000000E+00  9.89990820E-04
  0.00000000E+00  0.00000000E+00  4.66749035E-17  0.00000000E+00  3.27529606E-03
  0.00000000E+00  0.00000000E+00  7.58941521E-19  0.00000000E+00  1.30498554E-02
  2.26954366E-02  5.50589248E-03  0.00000000E+00  0.00000000E+00  2.68956792E-03
Grdnt Energy                               R     -2.574783485377790E+03
Grdnt NVar                                 I                1
Grdnt IGetFC                               I                4
Internal Forces                            R   N=           1
  8.26317655E-07
Internal Force Constants                   R   N=           1
  2.66239671E-01
Mulliken Charges                           R   N=           2
 -1.45789932E-01  1.45789932E-01
Optimization MaxStp                        I                2
Optimization Job offset                    I                0
Optimization Num results per geometry      I                2
Optimization Num geometry variables        I                6
Opt point       1 Results for each geome   R   N=           2
 -2.57478349E+03  0.00000000E+00
Opt point       1 Geometries               R   N=           6
  0.00000000E+00  0.00000000E+00  7.46311856E-02  0.00000000E+00  0.00000000E+00
 -2.61209149E+00
Opt point       1 Gradient at each geome   R   N=           6
  2.88935516E-17 -1.31550723E-16 -8.26317658E-07 -3.76184649E-17  2.50692914E-17
  8.26317651E-07
Optimization Number of geometries          I   N=           1
           1
ONIOM Charges                              I   N=          16
           0           0           0           0           0           0
           0           0           0           0           0           0
           0           0           0           0
ONIOM Multiplicities                       I   N=          16
           1           0           0           0           0           0
           0           0           0           0           0           0
           0           0           0           0
Atom Layers                                I   N=           2
           1           1
Atom Modifiers                             I   N=           2
           0           0
Force Field                                I                0
Atom Modified Types                        C   N=           2
                        
Int Atom Modified Types                    I   N=           2
           0           0
Link Atoms                                 I   N=           2
           0           0
Atom Modified MM Charges                   R   N=           2
  0.00000000E+00  0.00000000E+00
Link Distances                             R   N=           8
  0.00000000E+00  0.00000000E+00  0.00000000E+00  0.00000000E+00  0.00000000E+00
  0.00000000E+00  0.00000000E+00  0.00000000E+00
Cartesian Gradient                         R   N=           6
  2.88935516E-17 -1.31550723E-16 -8.26317658E-07 -3.76184649E-17  2.50692914E-17
  8.26317651E-07
Cartesian Force Constants                  R   N=          21
  1.07876788E-04  2.60645363E-15  1.07876809E-04 -4.13148538E-14 -1.07788705E-14
  2.66239671E-01 -1.07876057E-04 -2.60641634E-15  4.13148082E-14  1.07876057E-04
 -2.60641929E-15 -1.07876058E-04  1.07791177E-14  2.60640994E-15  1.07876058E-04
  4.13148295E-14  1.07800078E-14 -2.66239671E-01 -4.13148207E-14 -1.07801259E-14
  2.66239671E-01
Nonadiabatic coupling                      R   N=           6
  0.00000000E+00  0.00000000E+00  0.00000000E+00  0.00000000E+00  0.00000000E+00
  0.00000000E+00
Dipole Moment                              R   N=           3
  0.00000000E+00  0.00000000E+00 -4.82121720E-01
Dipole Derivatives                         R   N=          18
 -1.79432422E-01  1.72454660E-12  5.88728861E-12  5.50107144E-13 -1.79432422E-01
  4.83559586E-14 -3.88933195E-13  6.79269677E-13 -1.48458733E-01  1.79432422E-01
 -1.72454636E-12 -5.88728716E-12 -5.50106882E-13  1.79432422E-01 -4.83587977E-14
  3.88921014E-13 -6.79253972E-13  1.48458733E-01
Polarizability                             R   N=           6
  1.47913981E+01  4.19557204E-12  1.47913981E+01  3.00874589E-11  1.35350157E-11
  1.99691655E+01
Quadrupole Moment                          R   N=           6
 -1.10724660E+00 -1.10724660E+00  2.21449319E+00  0.00000000E+00  0.00000000E+00
  0.00000000E+00
QEq coupling tensors                       R   N=          12
  3.62753716E+00  0.00000000E+00  3.62753716E+00  0.00000000E+00  0.00000000E+00
 -7.25507433E+00  1.21904870E-01  0.00000000E+00  1.21904870E-01  0.00000000E+00
  0.00000000E+00 -2.43809740E-01
Number of Normal Modes                     I                1
Vib-LE2Fix                                 I               14
Vib-NDFDPol                                I                0
Vib-NumROA                                 I                0
Vib-NDim                                   I                2
Vib-NDim0                                  I                2
Vib-LFlags                                 I                8
Vib-IFlags                                 I   N=           8
           0           0           1           0           0           0
           0           0
Vib-AtMass                                 R   N=           2
  7.89183361E+01  1.00782504E+00
Vib-E2                                     R   N=          14
  2.65890981E+03  1.02052901E+00  4.25091843E+00  2.15917895E+01  0.00000000E+00
  0.00000000E+00  0.00000000E+00  0.00000000E+00  0.00000000E+00  1.00000000E+02
  0.00000000E+00  0.00000000E+00  0.00000000E+00  0.00000000E+00
Vib-Modes                                  R   N=           6
  0.00000000E+00  0.00000000E+00 -1.27694388E-02  0.00000000E+00  0.00000000E+00
  9.99918467E-01
ClPar MaxAn                                I              200
ClPar NIntPar                              I                4
ClPar NRealPar                             I               16
ClPar NBits                                I               30
ClPar LenBitVec                            I                1
ClPar Read BitMap                          I   N=         200
           0           0           0           0           0           0
           0           0           0           0           0           0
           0           0           0           0           0           0
           0           0           0           0           0           0
           0           0           0           0           0           0
           0           0           0           0           0           0
           0           0           0           0           0           0
           0           0           0           0           0           0
           0           0           0           0           0           0
           0           0           0           0           0           0
           0           0           0           0           0           0
           0           0           0           0           0           0
           0           0           0           0           0           0
           0           0           0           0           0           0
           0           0           0           0           0           0
           0           0           0           0           0           0
           0           0           0           0           0           0
           0           0           0           0           0           0
           0           0           0           0           0           0
           0           0           0           0           0           0
           0           0           0           0           0           0
           0           0           0           0           0           0
           0           0           0           0           0           0
           0           0           0           0           0           0
           0           0           0           0           0           0
           0           0           0           0           0           0
           0           0           0           0           0           0
           0           0           0           0           0           0
           0           0           0           0           0           0
           0           0           0           0           0           0
           0           0           0           0           0           0
           0           0           0           0           0           0
           0           0           0           0           0           0
           0           0
ClPar Default BitMap                       I   N=         200
        2016        2016        2016        2016        2016        2016
        2016        2016        2016        2016        2016        2016
        2016        2016        2016        2016        2016        2016
        2016        2016        2016        2016        2016        2016
        2016        2016        2016        2016        2016        2016
        2016        2016        2016        2016        2016        2016
        2016        2016        2016        2016        2016        2016
        2016        2016        2016        2016        2016        2016
        2016        2016        2016        2016        2016        2016
        2016        2016        2016        2016        2016        2016
        2016        2016        2016        2016        2016        2016
        2016        2016        2016        2016        2016        2016
        2016        2016        2016        2016        2016        2016
        2016        2016        2016        2016        2016        2016
        2016        2016         480         480         480         480
         480         480         480         480         480         480
         480         480         480         480         480         480
         480         480         480         480         480         480
         480         480         480         480         480         480
         480         480         480         480         480         480
         480         480         480         480         480         480
         480         480         480         480         480         480
         480         480         480         480         480         480
         480         480         480         480         480         480
         480         480         480         480         480         480
         480         480         480         480         480         480
         480         480         480         480         480         480
         480         480         480         480         480         480
         480         480         480         480         480         480
         480         480         480         480         480         480
         480         480         480         480         480         480
         480         480         480         480         480         480
         480         480         480         480         480         480
         480         480
ClPar Int Params                           I   N=         800
           0           0           0           0           0           0
           0           0           0           0           0           0
           0           0           0           0           0           0
           0           0           0           0           0           0
           0           0           0           0           0           0
           0           0           0           0           0           0
           0           0           0           0           0           0
           0           0           0           0           0           0
           0           0           0           0           0           0
           0           0           0           0           0           0
           0           0           0           0           0           0
           0           0           0           0           0           0
           0           0           0           0           0           0
           0           0           0           0           0           0
           0           0           0           0           0           0
           0           0           0           0           0           0
           0           0           0           0           0           0
           0           0           0           0           0           0
           0           0           0           0           0           0
           0           0           0           0           0           0
           0           0           0           0           0           0
           0           0           0           0           0           0
           0           0           0           0           0           0
           0           0           0           0           0           0
           0           0           0           0           0           0
           0           0           0           0           0           0
           0           0           0           0           0           0
           0           0           0           0           0           0
           0           0           0           0           0           0
           0           0           0           0           0           0
           0           0           0           0           0           0
           0           0           0           0           0           0
           0           0           0           0           0           0
           0           0           0           0           0           0
           0           0           0           0           0           0
           0           0           0           0           0           0
           0           0           0           0           0           0
           0           0           0           0           0           0
           0           0           0           0           0           0
           0           0           0           0           0           0
           0           0           0           0           0           0
           0           0           0           0           0           0
           0           0           0           0           0           0
           0           0           0           0           0           0
           0           0           0           0           0           0
           0           0           0           0           0           0
           0           0           0           0           0           0
           0           0           0           0           0           0
           0           0           0           0           0           0
           0           0           0           0           0           0
           0           0           0           0           0           0
           0           0           0           0           0           0
           0           0           0           0           0           0
           0           0           0           0           0           0
           0           0           0           0           0           0
           0           0           0           0           0           0
           0           0           0           0           0           0
           0           0           0           0           0           0
           0           0           0           0           0           0
           0           0           0           0           0           0
           0           0           0           0           0           0
           0           0           0           0           0           0
           0           0           0           0           0           0
           0           0           0           0           0           0
           0           0           0           0           0           0
           0           0           0           0           0           0
           0           0           0           0           0           0
           0           0           0           0           0           0
           0           0           0           0           0           0
           0           0           0           0           0           0
           0           0           0           0           0           0
           0           0           0           0           0           0
           0           0           0           0           0           0
           0           0           0           0           0           0
           0           0           0           0           0           0
           0           0           0           0           0           0
           0           0           0           0           0           0
           0           0           0           0           0           0
           0           0           0           0           0           0
           0           0           0           0           0           0
           0           0           0           0           0           0
           0           0           0           0           0           0
           0           0           0           0           0           0
           0           0           0           0           0           0
           0           0           0           0           0           0
           0           0           0           0           0           0
           0           0           0           0           0           0
           0           0           0           0           0           0
           0           0           0           0           0           0
           0           0           0           0           0           0
           0           0           0           0           0           0
           0           0           0           0           0           0
           0           0           0           0           0           0
           0           0           0           0           0           0
           0           0           0           0           0           0
           0           0           0           0           0           0
           0           0           0           0           0           0
           0           0           0           0           0           0
           0           0           0           0           0           0
           0           0           0           0           0           0
           0           0           0           0           0           0
           0           0           0           0           0           0
           0           0           0           0           0           0
           0           0           0           0           0           0
           0           0           0           0           0           0
           0           0           0           0           0           0
           0           0           0           0           0           0
           0           0           0           0           0           0
           0           0           0           0           0           0
           0           0           0           0           0           0
           0           0           0           0           0           0
           0           0           0           0           0           0
           0           0           0           0           0           0
           0           0           0           0           0           0
           0           0           0           0           0           0
           0           0           0           0           0           0
           0           0           0           0           0           0
           0           0           0           0           0           0
           0           0           0           0           0           0
           0           0           0           0           0           0
           0           0           0           0           0           0
           0           0           0           0           0           0
           0           0           0           0           0           0
           0           0           0           0           0           0
           0           0           0           0           0           0
           0           0           0           0           0           0
           0           0           0           0           0           0
           0           0           0           0           0           0
           0           0           0           0           0           0
           0           0           0           0           0           0
           0           0           0           0           0           0
           0           0           0           0           0           0
           0           0           0           0           0           0
           0           0
ClPar Real Params                          R   N=        3200
  0.00000000E+00  0.00000000E+00  0.00000000E+00  0.00000000E+00  0.00000000E+00
  0.00000000E+00  0.00000000E+00  0.00000000E+00  0.00000000E+00  0.00000000E+00
  0.00000000E+00  0.00000000E+00  0.00000000E+00  0.00000000E+00  0.00000000E+00
  0.00000000E+00  0.00000000E+00  0.00000000E+00  0.00000000E+00  0.00000000E+00
  0.00000000E+00  0.00000000E+00  0.00000000E+00  0.00000000E+00  0.00000000E+00
  0.00000000E+00  0.00000000E+00  0.00000000E+00  0.00000000E+00  0.00000000E+00
  0.00000000E+00  0.00000000E+00  0.00000000E+00  0.00000000E+00  0.00000000E+00
  0.00000000E+00  0.00000000E+00  0.00000000E+00  0.00000000E+00  0.00000000E+00
  0.00000000E+00  0.00000000E+00  0.00000000E+00  0.00000000E+00  0.00000000E+00
  0.00000000E+00  0.00000000E+00  0.00000000E+00  0.00000000E+00  0.00000000E+00
  0.00000000E+00  0.00000000E+00  0.00000000E+00  0.00000000E+00  0.00000000E+00
  0.00000000E+00  0.00000000E+00  0.00000000E+00  0.00000000E+00  0.00000000E+00
  0.00000000E+00  0.00000000E+00  0.00000000E+00  0.00000000E+00  0.00000000E+00
  0.00000000E+00  0.00000000E+00  0.00000000E+00  0.00000000E+00  0.00000000E+00
  0.00000000E+00  0.00000000E+00  0.00000000E+00  0.00000000E+00  0.00000000E+00
  0.00000000E+00  0.00000000E+00  0.00000000E+00  0.00000000E+00  0.00000000E+00
  0.00000000E+00  0.00000000E+00  0.00000000E+00  0.00000000E+00  0.00000000E+00
  0.00000000E+00  0.00000000E+00  0.00000000E+00  0.00000000E+00  0.00000000E+00
  0.00000000E+00  0.00000000E+00  0.00000000E+00  0.00000000E+00  0.00000000E+00
  0.00000000E+00  0.00000000E+00  0.00000000E+00  0.00000000E+00  0.00000000E+00
  0.00000000E+00  0.00000000E+00  0.00000000E+00  0.00000000E+00  0.00000000E+00
  0.00000000E+00  0.00000000E+00  0.00000000E+00  0.00000000E+00  0.00000000E+00
  0.00000000E+00  0.00000000E+00  0.00000000E+00  0.00000000E+00  0.00000000E+00
  0.00000000E+00  0.00000000E+00  0.00000000E+00  0.00000000E+00  0.00000000E+00
  0.00000000E+00  0.00000000E+00  0.00000000E+00  0.00000000E+00  0.00000000E+00
  0.00000000E+00  0.00000000E+00  0.00000000E+00  0.00000000E+00  0.00000000E+00
  0.00000000E+00  0.00000000E+00  0.00000000E+00  0.00000000E+00  0.00000000E+00
  0.00000000E+00  0.00000000E+00  0.00000000E+00  0.00000000E+00  0.00000000E+00
  0.00000000E+00  0.00000000E+00  0.00000000E+00  0.00000000E+00  0.00000000E+00
  0.00000000E+00  0.00000000E+00  0.00000000E+00  0.00000000E+00  0.00000000E+00
  0.00000000E+00  0.00000000E+00  0.00000000E+00  0.00000000E+00  0.00000000E+00
  0.00000000E+00  0.00000000E+00  0.00000000E+00  0.00000000E+00  0.00000000E+00
  0.00000000E+00  0.00000000E+00  0.00000000E+00  0.00000000E+00  0.00000000E+00
  0.00000000E+00  0.00000000E+00  0.00000000E+00  0.00000000E+00  0.00000000E+00
  0.00000000E+00  0.00000000E+00  0.00000000E+00  0.00000000E+00  0.00000000E+00
  0.00000000E+00  0.00000000E+00  0.00000000E+00  0.00000000E+00  0.00000000E+00
  0.00000000E+00  0.00000000E+00  0.00000000E+00  0.00000000E+00  0.00000000E+00
  0.00000000E+00  0.00000000E+00  0.00000000E+00  0.00000000E+00  0.00000000E+00
  0.00000000E+00  0.00000000E+00  0.00000000E+00  0.00000000E+00  0.00000000E+00
  0.00000000E+00  0.00000000E+00  0.00000000E+00  0.00000000E+00  0.00000000E+00
  2.26000000E-01  4.43000000E-01  1.01000000E-01  1.47000000E-01  1.92000000E-01
  2.40000000E-01  2.75000000E-01  3.03000000E-01  3.25000000E-01  4.13000000E-01
  9.60000000E-02  1.35000000E-01  1.73000000E-01  2.11000000E-01  2.48000000E-01
  2.86000000E-01  3.23000000E-01  3.60000000E-01  8.20000000E-02  1.04000000E-01
  1.17000000E-01  1.23000000E-01  1.29000000E-01  1.34000000E-01  1.40000000E-01
  1.44000000E-01  1.48000000E-01  1.52000000E-01  1.55000000E-01  1.76000000E-01
  1.98000000E-01  2.19000000E-01  2.39000000E-01  2.60000000E-01  2.80000000E-01
  3.00000000E-01  7.90000000E-02  9.90000000E-02  1.19000000E-01  1.26000000E-01
  1.33000000E-01  1.40000000E-01  1.47000000E-01  1.53000000E-01  1.58000000E-01
  1.63000000E-01  1.57000000E-01  1.70000000E-01  1.87000000E-01  2.03000000E-01
  2.19000000E-01  2.34000000E-01  2.50000000E-01  2.65000000E-01  7.40000000E-02
  9.20000000E-02  1.05000000E-01  1.06000000E-01  1.07000000E-01  1.08000000E-01
  1.09000000E-01  1.10000000E-01  1.11000000E-01  1.12000000E-01  1.13000000E-01
  1.14000000E-01  1.15000000E-01  1.16000000E-01  1.17000000E-01  1.17000000E-01
  1.26000000E-01  1.36000000E-01  1.46000000E-01  1.55000000E-01  1.65000000E-01
  1.73000000E-01  1.82000000E-01  1.90000000E-01  1.62000000E-01  1.78000000E-01
  1.10000000E-01  1.35000000E-01  1.59000000E-01  1.83000000E-01  2.07000000E-01
  2.31000000E-01  6.90000000E-02  9.40000000E-02  1.02000000E-01  1.03000000E-01
  1.05000000E-01  1.07000000E-01  1.09000000E-01  1.11000000E-01  1.13000000E-01
  1.15000000E-01  1.17000000E-01  1.19000000E-01  1.20000000E-01  1.22000000E-01
  1.24000000E-01  1.26000000E-01  1.28000000E-01  1.28000000E-01  1.28000000E-01
  1.28000000E-01  1.28000000E-01  1.28000000E-01  1.28000000E-01  1.28000000E-01
  1.28000000E-01  1.28000000E-01  1.28000000E-01  1.28000000E-01  1.28000000E-01
  1.28000000E-01  1.28000000E-01  1.28000000E-01  1.28000000E-01  1.28000000E-01
  1.28000000E-01  1.28000000E-01  1.28000000E-01  1.28000000E-01  1.28000000E-01
  1.28000000E-01  1.28000000E-01  1.28000000E-01  1.28000000E-01  1.28000000E-01
  1.28000000E-01  1.28000000E-01  1.28000000E-01  1.28000000E-01  1.28000000E-01
  1.28000000E-01  1.28000000E-01  1.28000000E-01  1.28000000E-01  1.28000000E-01
  1.28000000E-01  1.28000000E-01  1.28000000E-01  1.28000000E-01  1.28000000E-01
  1.28000000E-01  1.28000000E-01  1.28000000E-01  1.28000000E-01  1.28000000E-01
  1.28000000E-01  1.28000000E-01  1.28000000E-01  1.28000000E-01  1.28000000E-01
  1.28000000E-01  1.28000000E-01  1.28000000E-01  1.28000000E-01  1.28000000E-01
  1.28000000E-01  1.28000000E-01  1.28000000E-01  1.28000000E-01  1.28000000E-01
  1.28000000E-01  1.28000000E-01  1.28000000E-01  1.28000000E-01  1.28000000E-01
  1.28000000E-01  1.28000000E-01  1.28000000E-01  1.28000000E-01  1.28000000E-01
  1.28000000E-01  1.28000000E-01  1.28000000E-01  1.28000000E-01  1.28000000E-01
  1.28000000E-01  1.28000000E-01  1.28000000E-01  1.28000000E-01  1.28000000E-01
  1.28000000E-01  1.28000000E-01  1.28000000E-01  1.28000000E-01  1.28000000E-01
  1.28000000E-01  1.28000000E-01  1.28000000E-01  1.28000000E-01  1.28000000E-01
  1.28000000E-01  1.28000000E-01  1.28000000E-01  1.28000000E-01  1.28000000E-01
  5.47000000E-01  5.92000000E-01  5.99000000E-01  6.68000000E-01  6.98000000E-01
  7.18000000E-01  7.26000000E-01  7.36000000E-01  7.43000000E-01  7.45000000E-01
  6.07000000E-01  6.66000000E-01  6.93000000E-01  7.09000000E-01  7.20000000E-01
  7.29000000E-01  7.35000000E-01  7.40000000E-01  6.08000000E-01  7.34000000E-01
  7.46000000E-01  7.55000000E-01  7.61000000E-01  7.65000000E-01  7.67000000E-01
  7.60000000E-01  7.49000000E-01  7.33000000E-01  7.08000000E-01  6.48000000E-01
  6.88000000E-01  7.09000000E-01  7.22000000E-01  7.31000000E-01  7.38000000E-01
  7.44000000E-01  6.09000000E-01  7.30000000E-01  7.41000000E-01  7.52000000E-01
  7.58000000E-01  7.63000000E-01  7.66000000E-01  7.58000000E-01  7.48000000E-01
  7.33000000E-01  7.01000000E-01  6.45000000E-01  6.86000000E-01  7.08000000E-01
  7.22000000E-01  7.31000000E-01  7.38000000E-01  7.44000000E-01  6.08000000E-01
  7.28000000E-01  7.32000000E-01  7.32000000E-01  7.32000000E-01  7.32000000E-01
  7.32000000E-01  7.32000000E-01  7.32000000E-01  7.32000000E-01  7.32000000E-01
  7.31000000E-01  7.31000000E-01  7.31000000E-01  7.31000000E-01  7.46000000E-01
  7.37000000E-01  7.46000000E-01  7.51000000E-01  7.55000000E-01  7.58000000E-01
  7.47000000E-01  7.32000000E-01  7.11000000E-01  7.41000000E-01  7.07000000E-01
  7.47000000E-01  7.43000000E-01  7.42000000E-01  7.42000000E-01  7.43000000E-01
  7.44000000E-01  6.05000000E-01  7.24000000E-01  7.26000000E-01  7.26000000E-01
  7.27000000E-01  7.27000000E-01  7.27000000E-01  7.28000000E-01  7.28000000E-01
  7.28000000E-01  7.28000000E-01  7.28000000E-01  7.29000000E-01  7.29000000E-01
  7.29000000E-01  7.29000000E-01  7.29000000E-01  7.29000000E-01  7.29000000E-01
  7.29000000E-01  7.29000000E-01  7.29000000E-01  7.29000000E-01  7.29000000E-01
  7.29000000E-01  7.29000000E-01  7.29000000E-01  7.29000000E-01  7.29000000E-01
  7.29000000E-01  7.29000000E-01  7.29000000E-01  7.29000000E-01  7.29000000E-01
  7.29000000E-01  7.29000000E-01  7.29000000E-01  7.29000000E-01  7.29000000E-01
  7.29000000E-01  7.29000000E-01  7.29000000E-01  7.29000000E-01  7.29000000E-01
  7.29000000E-01  7.29000000E-01  7.29000000E-01  7.29000000E-01  7.29000000E-01
  7.29000000E-01  7.29000000E-01  7.29000000E-01  7.29000000E-01  7.29000000E-01
  7.29000000E-01  7.29000000E-01  7.29000000E-01  7.29000000E-01  7.29000000E-01
  7.29000000E-01  7.29000000E-01  7.29000000E-01  7.29000000E-01  7.29000000E-01
  7.29000000E-01  7.29000000E-01  7.29000000E-01  7.29000000E-01  7.29000000E-01
  7.29000000E-01  7.29000000E-01  7.29000000E-01  7.29000000E-01  7.29000000E-01
  7.29000000E-01  7.29000000E-01  7.29000000E-01  7.29000000E-01  7.29000000E-01
  7.29000000E-01  7.29000000E-01  7.29000000E-01  7.29000000E-01  7.29000000E-01
  7.29000000E-01  7.29000000E-01  7.29000000E-01  7.29000000E-01  7.29000000E-01
  7.29000000E-01  7.29000000E-01  7.29000000E-01  7.29000000E-01  7.29000000E-01
  7.29000000E-01  7.29000000E-01  7.29000000E-01  7.29000000E-01  7.29000000E-01
  7.29000000E-01  7.29000000E-01  7.29000000E-01  7.29000000E-01  7.29000000E-01
  7.29000000E-01  7.29000000E-01  7.29000000E-01  7.29000000E-01  7.29000000E-01
  7.29000000E-01  7.29000000E-01  7.29000000E-01  7.29000000E-01  7.29000000E-01
  1.00000000E+00  1.70400000E+00  3.23000000E-01  3.89000000E-01  4.67000000E-01
  5.67000000E-01  6.36000000E-01  6.64000000E-01  6.96000000E-01  8.79000000E-01
  3.07000000E-01  3.48000000E-01  4.00000000E-01  4.54000000E-01  5.09000000E-01
  5.65000000E-01  6.21000000E-01  6.77000000E-01  2.56000000E-01  3.50000000E-01
  3.64000000E-01  3.62000000E-01  3.62000000E-01  3.62000000E-01  3.62000000E-01
  3.65000000E-01  3.69000000E-01  3.75000000E-01  3.86000000E-01  4.46000000E-01
  4.55000000E-01  4.74000000E-01  4.96000000E-01  5.20000000E-01  5.45000000E-01
  5.70000000E-01  2.45000000E-01  3.22000000E-01  3.55000000E-01  3.59000000E-01
  3.64000000E-01  3.70000000E-01  3.76000000E-01  3.85000000E-01  3.95000000E-01
  4.08000000E-01  3.76000000E-01  4.23000000E-01  4.22000000E-01  4.32000000E-01
  4.45000000E-01  4.59000000E-01  4.75000000E-01  4.91000000E-01  2.28000000E-01
  2.92000000E-01  2.89000000E-01  2.92000000E-01  2.95000000E-01  2.98000000E-01
  3.00000000E-01  3.03000000E-01  3.06000000E-01  3.09000000E-01  3.12000000E-01
  3.15000000E-01  3.18000000E-01  3.21000000E-01  3.24000000E-01  3.61000000E-01
  3.69000000E-01  3.70000000E-01  3.72000000E-01  3.75000000E-01  3.78000000E-01
  3.85000000E-01  3.94000000E-01  4.07000000E-01  5.26000000E-01  6.21000000E-01
  3.36000000E-01  3.54000000E-01  3.71000000E-01  3.86000000E-01  4.02000000E-01
  4.17000000E-01  2.09000000E-01  2.94000000E-01  2.65000000E-01  2.72000000E-01
  2.78000000E-01  2.84000000E-01  2.91000000E-01  2.97000000E-01  3.03000000E-01
  3.10000000E-01  3.16000000E-01  3.22000000E-01  3.29000000E-01  3.35000000E-01
  3.41000000E-01  3.48000000E-01  3.54000000E-01  3.54000000E-01  3.54000000E-01
  3.54000000E-01  3.54000000E-01  3.54000000E-01  3.54000000E-01  3.54000000E-01
  3.54000000E-01  3.54000000E-01  3.54000000E-01  3.54000000E-01  3.54000000E-01
  3.54000000E-01  3.54000000E-01  3.54000000E-01  3.54000000E-01  3.54000000E-01
  3.54000000E-01  3.54000000E-01  3.54000000E-01  3.54000000E-01  3.54000000E-01
  3.54000000E-01  3.54000000E-01  3.54000000E-01  3.54000000E-01  3.54000000E-01
  3.54000000E-01  3.54000000E-01  3.54000000E-01  3.54000000E-01  3.54000000E-01
  3.54000000E-01  3.54000000E-01  3.54000000E-01  3.54000000E-01  3.54000000E-01
  3.54000000E-01  3.54000000E-01  3.54000000E-01  3.54000000E-01  3.54000000E-01
  3.54000000E-01  3.54000000E-01  3.54000000E-01  3.54000000E-01  3.54000000E-01
  3.54000000E-01  3.54000000E-01  3.54000000E-01  3.54000000E-01  3.54000000E-01
  3.54000000E-01  3.54000000E-01  3.54000000E-01  3.54000000E-01  3.54000000E-01
  3.54000000E-01  3.54000000E-01  3.54000000E-01  3.54000000E-01  3.54000000E-01
  3.54000000E-01  3.54000000E-01  3.54000000E-01  3.54000000E-01  3.54000000E-01
  3.54000000E-01  3.54000000E-01  3.54000000E-01  3.54000000E-01  3.54000000E-01
  3.54000000E-01  3.54000000E-01  3.54000000E-01  3.54000000E-01  3.54000000E-01
  3.54000000E-01  3.54000000E-01  3.54000000E-01  3.54000000E-01  3.54000000E-01
  3.54000000E-01  3.54000000E-01  3.54000000E-01  3.54000000E-01  3.54000000E-01
  3.54000000E-01  3.54000000E-01  3.54000000E-01  3.54000000E-01  3.54000000E-01
  3.54000000E-01  3.54000000E-01  3.54000000E-01  3.54000000E-01  3.54000000E-01
  2.74000000E-01  2.96000000E-01  5.80000000E-02  4.40000000E-02  3.90000000E-02
  3.90000000E-02  3.60000000E-02  3.20000000E-02  2.90000000E-02  3.30000000E-02
  5.50000000E-02  3.90000000E-02  3.30000000E-02  3.00000000E-02  2.80000000E-02
  2.60000000E-02  2.50000000E-02  2.50000000E-02  4.50000000E-02  4.40000000E-02
  3.30000000E-02  2.50000000E-02  2.10000000E-02  1.80000000E-02  1.50000000E-02
  1.80000000E-02  2.10000000E-02  2.50000000E-02  3.30000000E-02  5.00000000E-02
  3.80000000E-02  3.10000000E-02  2.70000000E-02  2.40000000E-02  2.20000000E-02
  2.10000000E-02  4.30000000E-02  4.00000000E-02  3.20000000E-02  2.50000000E-02
  2.10000000E-02  1.80000000E-02  1.60000000E-02  1.90000000E-02  2.20000000E-02
  2.80000000E-02  3.10000000E-02  4.70000000E-02  3.40000000E-02  2.80000000E-02
  2.40000000E-02  2.10000000E-02  1.90000000E-02  1.80000000E-02  3.90000000E-02
  3.60000000E-02  2.50000000E-02  2.50000000E-02  2.50000000E-02  2.60000000E-02
  2.60000000E-02  2.60000000E-02  2.70000000E-02  2.70000000E-02  2.70000000E-02
  2.70000000E-02  2.80000000E-02  2.80000000E-02  2.80000000E-02  3.30000000E-02
  3.30000000E-02  2.60000000E-02  2.10000000E-02  1.80000000E-02  1.60000000E-02
  1.80000000E-02  2.20000000E-02  2.60000000E-02  4.90000000E-02  8.20000000E-02
  3.00000000E-02  2.40000000E-02  2.10000000E-02  1.80000000E-02  1.60000000E-02
  1.50000000E-02  3.50000000E-02  3.60000000E-02  2.20000000E-02  2.30000000E-02
  2.40000000E-02  2.40000000E-02  2.50000000E-02  2.50000000E-02  2.60000000E-02
  2.70000000E-02  2.70000000E-02  2.80000000E-02  2.80000000E-02  2.90000000E-02
  3.00000000E-02  3.00000000E-02  3.10000000E-02  3.10000000E-02  3.10000000E-02
  3.10000000E-02  3.10000000E-02  3.10000000E-02  3.10000000E-02  3.10000000E-02
  3.10000000E-02  3.10000000E-02  3.10000000E-02  3.10000000E-02  3.10000000E-02
  3.10000000E-02  3.10000000E-02  3.10000000E-02  3.10000000E-02  3.10000000E-02
  3.10000000E-02  3.10000000E-02  3.10000000E-02  3.10000000E-02  3.10000000E-02
  3.10000000E-02  3.10000000E-02  3.10000000E-02  3.10000000E-02  3.10000000E-02
  3.10000000E-02  3.10000000E-02  3.10000000E-02  3.10000000E-02  3.10000000E-02
  3.10000000E-02  3.10000000E-02  3.10000000E-02  3.10000000E-02  3.10000000E-02
  3.10000000E-02  3.10000000E-02  3.10000000E-02  3.10000000E-02  3.10000000E-02
  3.10000000E-02  3.10000000E-02  3.10000000E-02  3.10000000E-02  3.10000000E-02
  3.10000000E-02  3.10000000E-02  3.10000000E-02  3.10000000E-02  3.10000000E-02
  3.10000000E-02  3.10000000E-02  3.10000000E-02  3.10000000E-02  3.10000000E-02
  3.10000000E-02  3.10000000E-02  3.10000000E-02  3.10000000E-02  3.10000000E-02
  3.10000000E-02  3.10000000E-02  3.10000000E-02  3.10000000E-02  3.10000000E-02
  3.10000000E-02  3.10000000E-02  3.10000000E-02  3.10000000E-02  3.10000000E-02
  3.10000000E-02  3.10000000E-02  3.10000000E-02  3.10000000E-02  3.10000000E-02
  3.10000000E-02  3.10000000E-02  3.10000000E-02  3.10000000E-02  3.10000000E-02
  3.10000000E-02  3.10000000E-02  3.10000000E-02  3.10000000E-02  3.10000000E-02
  3.10000000E-02  3.10000000E-02  3.10000000E-02  3.10000000E-02  3.10000000E-02
  3.10000000E-02  3.10000000E-02  3.10000000E-02  3.10000000E-02  3.10000000E-02
 -5.92770000E-01 -9.17860000E-01 -2.48668000E+00 -8.36430000E-01 -3.18470000E-01
 -4.55790000E-01 -5.70730000E-01 -6.77940000E-01 -7.69860000E-01 -8.51140000E-01
 -1.51908000E+00 -3.18830000E-01 -2.17900000E-01 -3.01260000E-01 -3.72750000E-01
 -4.15890000E-01 -4.45930000E-01 -5.91320000E-01 -9.56370000E-01 -2.88450000E-01
 -4.87320000E-01 -6.34280000E-01 -7.17490000E-01 -7.91980000E-01 -8.68490000E-01
 -9.17520000E-01 -9.54890000E-01 -9.88460000E-01 -1.50055000E+00 -2.92560000E-01
 -2.14960000E-01 -2.91180000E-01 -3.42080000E-01 -3.84480000E-01 -4.34940000E-01
 -5.24310000E-01 -8.10070000E-01 -2.58460000E-01 -4.35550000E-01 -5.32740000E-01
 -6.08450000E-01 -6.10260000E-01 -7.58920000E-01 -8.90130000E-01 -8.45780000E-01
 -8.69340000E-01 -1.38234000E+00 -2.64850000E-01 -1.97280000E-01 -2.65040000E-01
 -2.94470000E-01 -3.16570000E-01 -3.63590000E-01 -4.57840000E-01 -8.61830000E-01
 -1.33004000E+00 -6.82880000E-01 -6.25540000E-01 -6.35430000E-01 -8.79690000E-01
 -9.02690000E-01 -9.59650000E-01 -1.01869000E+00 -6.81170000E-01 -7.96500000E-01
 -9.04950000E-01 -8.34790000E-01 -9.01560000E-01 -9.74130000E-01 -1.03326000E+00
 -7.15490000E-01 -7.83960000E-01 -8.28380000E-01 -5.61040000E-01 -1.03841000E+00
 -8.62500000E-01 -9.59300000E-01 -1.01755000E+00 -7.64900000E-01 -1.29467000E+00
 -1.92740000E-01 -2.56010000E-01 -3.19820000E-01 -1.94660000E-01 -2.60090000E-01
 -4.27990000E-01  0.00000000E+00  0.00000000E+00  0.00000000E+00  0.00000000E+00
  0.00000000E+00  0.00000000E+00  0.00000000E+00  0.00000000E+00  0.00000000E+00
  0.00000000E+00  0.00000000E+00  0.00000000E+00  0.00000000E+00  0.00000000E+00
  0.00000000E+00  0.00000000E+00  0.00000000E+00  0.00000000E+00  0.00000000E+00
  0.00000000E+00  0.00000000E+00  0.00000000E+00  0.00000000E+00  0.00000000E+00
  0.00000000E+00  0.00000000E+00  0.00000000E+00  0.00000000E+00  0.00000000E+00
  0.00000000E+00  0.00000000E+00  0.00000000E+00  0.00000000E+00  0.00000000E+00
  0.00000000E+00  0.00000000E+00  0.00000000E+00  0.00000000E+00  0.00000000E+00
  0.00000000E+00  0.00000000E+00  0.00000000E+00  0.00000000E+00  0.00000000E+00
  0.00000000E+00  0.00000000E+00  0.00000000E+00  0.00000000E+00  0.00000000E+00
  0.00000000E+00  0.00000000E+00  0.00000000E+00  0.00000000E+00  0.00000000E+00
  0.00000000E+00  0.00000000E+00  0.00000000E+00  0.00000000E+00  0.00000000E+00
  0.00000000E+00  0.00000000E+00  0.00000000E+00  0.00000000E+00  0.00000000E+00
  0.00000000E+00  0.00000000E+00  0.00000000E+00  0.00000000E+00  0.00000000E+00
  0.00000000E+00  0.00000000E+00  0.00000000E+00  0.00000000E+00  0.00000000E+00
  0.00000000E+00  0.00000000E+00  0.00000000E+00  0.00000000E+00  0.00000000E+00
  0.00000000E+00  0.00000000E+00  0.00000000E+00  0.00000000E+00  0.00000000E+00
  0.00000000E+00  0.00000000E+00  0.00000000E+00  0.00000000E+00  0.00000000E+00
  0.00000000E+00  0.00000000E+00  0.00000000E+00  0.00000000E+00  0.00000000E+00
  0.00000000E+00  0.00000000E+00  0.00000000E+00  0.00000000E+00  0.00000000E+00
  0.00000000E+00  0.00000000E+00  0.00000000E+00  0.00000000E+00  0.00000000E+00
  0.00000000E+00  0.00000000E+00  0.00000000E+00  0.00000000E+00  0.00000000E+00
  0.00000000E+00  0.00000000E+00  0.00000000E+00  0.00000000E+00  0.00000000E+00
  1.90440000E+00  1.36430000E+00  4.84000000E-01  7.31600000E+00  9.24030000E+00
  8.78200000E+00  5.61290000E+00  4.83340000E+00  3.24870000E+00  2.71090000E+00
  2.01130000E+00  1.50282000E+01  1.46788000E+01  2.13546000E+01  2.38290000E+01
  1.98022000E+01  1.50468000E+01  1.09745000E+01  1.27219000E+01  1.51949000E+01
  1.57342000E+01  2.79222000E+01  1.61366000E+01  2.21252000E+01  2.45676000E+01
  1.96016000E+01  1.79818000E+01  1.72396000E+01  5.01500000E+00  1.92898000E+01
  2.34477000E+01  2.23993000E+01  2.96586000E+01  2.60081000E+01  2.15580000E+01
  1.69594000E+01  1.56479000E+01  1.86897000E+01  1.93530000E+01  3.43444000E+01
  1.98480000E+01  2.72140000E+01  3.02182000E+01  2.41099000E+01  2.21176000E+01
  2.12047000E+01  7.56690000E+00  2.37264000E+01  2.93879000E+01  3.01278000E+01
  4.19382000E+01  3.85203000E+01  3.39511000E+01  2.75774000E+01  1.56460000E+01
  1.04460000E+01  2.01830000E+01  4.99540000E+01  4.76430000E+01  1.18690000E+01
  1.08670000E+01  9.96100000E+00  9.18700000E+00  3.67980000E+01  1.34070000E+01
  9.38200000E+00  9.81700000E+00  8.90800000E+00  8.40700000E+00  8.05800000E+00
  1.29600000E+01  2.67920000E+01  2.49300000E+01  3.45630000E+01  1.11860000E+01
  1.09440000E+01  1.01270000E+01  9.40400000E+00  1.36660000E+01  7.81000000E+00
  6.93600000E+01  5.86630000E+01  4.79690000E+01  4.52740000E+01  3.92290000E+01
  3.30660000E+01  0.00000000E+00  0.00000000E+00  0.00000000E+00  0.00000000E+00
  0.00000000E+00  0.00000000E+00  0.00000000E+00  0.00000000E+00  0.00000000E+00
  0.00000000E+00  0.00000000E+00  0.00000000E+00  0.00000000E+00  0.00000000E+00
  0.00000000E+00  0.00000000E+00  0.00000000E+00  0.00000000E+00  0.00000000E+00
  0.00000000E+00  0.00000000E+00  0.00000000E+00  0.00000000E+00  0.00000000E+00
  0.00000000E+00  0.00000000E+00  0.00000000E+00  0.00000000E+00  0.00000000E+00
  0.00000000E+00  0.00000000E+00  0.00000000E+00  0.00000000E+00  0.00000000E+00
  0.00000000E+00  0.00000000E+00  0.00000000E+00  0.00000000E+00  0.00000000E+00
  0.00000000E+00  0.00000000E+00  0.00000000E+00  0.00000000E+00  0.00000000E+00
  0.00000000E+00  0.00000000E+00  0.00000000E+00  0.00000000E+00  0.00000000E+00
  0.00000000E+00  0.00000000E+00  0.00000000E+00  0.00000000E+00  0.00000000E+00
  0.00000000E+00  0.00000000E+00  0.00000000E+00  0.00000000E+00  0.00000000E+00
  0.00000000E+00  0.00000000E+00  0.00000000E+00  0.00000000E+00  0.00000000E+00
  0.00000000E+00  0.00000000E+00  0.00000000E+00  0.00000000E+00  0.00000000E+00
  0.00000000E+00  0.00000000E+00  0.00000000E+00  0.00000000E+00  0.00000000E+00
  0.00000000E+00  0.00000000E+00  0.00000000E+00  0.00000000E+00  0.00000000E+00
  0.00000000E+00  0.00000000E+00  0.00000000E+00  0.00000000E+00  0.00000000E+00
  0.00000000E+00  0.00000000E+00  0.00000000E+00  0.00000000E+00  0.00000000E+00
  0.00000000E+00  0.00000000E+00  0.00000000E+00  0.00000000E+00  0.00000000E+00
  0.00000000E+00  0.00000000E+00  0.00000000E+00  0.00000000E+00  0.00000000E+00
  0.00000000E+00  0.00000000E+00  0.00000000E+00  0.00000000E+00  0.00000000E+00
  0.00000000E+00  0.00000000E+00  0.00000000E+00  0.00000000E+00  0.00000000E+00
  0.00000000E+00  0.00000000E+00  0.00000000E+00  0.00000000E+00  0.00000000E+00
  0.00000000E+00  0.00000000E+00  0.00000000E+00  0.00000000E+00  0.00000000E+00
  0.00000000E+00  0.00000000E+00  0.00000000E+00  0.00000000E+00  0.00000000E+00
  0.00000000E+00  0.00000000E+00  0.00000000E+00  0.00000000E+00  0.00000000E+00
  0.00000000E+00  0.00000000E+00  0.00000000E+00  0.00000000E+00  0.00000000E+00
  0.00000000E+00  0.00000000E+00  0.00000000E+00  0.00000000E+00  0.00000000E+00
  0.00000000E+00  0.00000000E+00  0.00000000E+00  0.00000000E+00  0.00000000E+00
  0.00000000E+00  0.00000000E+00  0.00000000E+00  0.00000000E+00  0.00000000E+00
  0.00000000E+00  0.00000000E+00  0.00000000E+00  0.00000000E+00  0.00000000E+00
  0.00000000E+00  0.00000000E+00  0.00000000E+00  0.00000000E+00  0.00000000E+00
  0.00000000E+00  0.00000000E+00  0.00000000E+00  0.00000000E+00  0.00000000E+00
  0.00000000E+00  0.00000000E+00  0.00000000E+00  0.00000000E+00  0.00000000E+00
  0.00000000E+00  0.00000000E+00  0.00000000E+00  0.00000000E+00  0.00000000E+00
  0.00000000E+00  0.00000000E+00  0.00000000E+00  0.00000000E+00  0.00000000E+00
  0.00000000E+00  0.00000000E+00  0.00000000E+00  0.00000000E+00  0.00000000E+00
  0.00000000E+00  0.00000000E+00  0.00000000E+00  0.00000000E+00  0.00000000E+00
  0.00000000E+00  0.00000000E+00  0.00000000E+00  0.00000000E+00  0.00000000E+00
  0.00000000E+00  0.00000000E+00  0.00000000E+00  0.00000000E+00  0.00000000E+00
  0.00000000E+00  0.00000000E+00  0.00000000E+00  0.00000000E+00  0.00000000E+00
  0.00000000E+00  0.00000000E+00  0.00000000E+00  0.00000000E+00  0.00000000E+00
  0.00000000E+00  0.00000000E+00  0.00000000E+00  0.00000000E+00  0.00000000E+00
  0.00000000E+00  0.00000000E+00  0.00000000E+00  0.00000000E+00  0.00000000E+00
  0.00000000E+00  0.00000000E+00  0.00000000E+00  0.00000000E+00  0.00000000E+00
  0.00000000E+00  0.00000000E+00  0.00000000E+00  0.00000000E+00  0.00000000E+00
  0.00000000E+00  0.00000000E+00  0.00000000E+00  0.00000000E+00  0.00000000E+00
  0.00000000E+00  0.00000000E+00  0.00000000E+00  0.00000000E+00  0.00000000E+00
  0.00000000E+00  0.00000000E+00  0.00000000E+00  0.00000000E+00  0.00000000E+00
  0.00000000E+00  0.00000000E+00  0.00000000E+00  0.00000000E+00  0.00000000E+00
  0.00000000E+00  0.00000000E+00  0.00000000E+00  0.00000000E+00  0.00000000E+00
  0.00000000E+00  0.00000000E+00  0.00000000E+00  0.00000000E+00  0.00000000E+00
  0.00000000E+00  0.00000000E+00  0.00000000E+00  0.00000000E+00  0.00000000E+00
  0.00000000E+00  0.00000000E+00  0.00000000E+00  0.00000000E+00  0.00000000E+00
  0.00000000E+00  0.00000000E+00  0.00000000E+00  0.00000000E+00  0.00000000E+00
  0.00000000E+00  0.00000000E+00  0.00000000E+00  0.00000000E+00  0.00000000E+00
  0.00000000E+00  0.00000000E+00  0.00000000E+00  0.00000000E+00  0.00000000E+00
  0.00000000E+00  0.00000000E+00  0.00000000E+00  0.00000000E+00  0.00000000E+00
  0.00000000E+00  0.00000000E+00  0.00000000E+00  0.00000000E+00  0.00000000E+00
  0.00000000E+00  0.00000000E+00  0.00000000E+00  0.00000000E+00  0.00000000E+00
  0.00000000E+00  0.00000000E+00  0.00000000E+00  0.00000000E+00  0.00000000E+00
  0.00000000E+00  0.00000000E+00  0.00000000E+00  0.00000000E+00  0.00000000E+00
  0.00000000E+00  0.00000000E+00  0.00000000E+00  0.00000000E+00  0.00000000E+00
  0.00000000E+00  0.00000000E+00  0.00000000E+00  0.00000000E+00  0.00000000E+00
  0.00000000E+00  0.00000000E+00  0.00000000E+00  0.00000000E+00  0.00000000E+00
  0.00000000E+00  0.00000000E+00  0.00000000E+00  0.00000000E+00  0.00000000E+00
  0.00000000E+00  0.00000000E+00  0.00000000E+00  0.00000000E+00  0.00000000E+00
  0.00000000E+00  0.00000000E+00  0.00000000E+00  0.00000000E+00  0.00000000E+00
  0.00000000E+00  0.00000000E+00  0.00000000E+00  0.00000000E+00  0.00000000E+00
  0.00000000E+00  0.00000000E+00  0.00000000E+00  0.00000000E+00  0.00000000E+00
  0.00000000E+00  0.00000000E+00  0.00000000E+00  0.00000000E+00  0.00000000E+00
  0.00000000E+00  0.00000000E+00  0.00000000E+00  0.00000000E+00  0.00000000E+00
  0.00000000E+00  0.00000000E+00  0.00000000E+00  0.00000000E+00  0.00000000E+00
  0.00000000E+00  0.00000000E+00  0.00000000E+00  0.00000000E+00  0.00000000E+00
  0.00000000E+00  0.00000000E+00  0.00000000E+00  0.00000000E+00  0.00000000E+00
  0.00000000E+00  0.00000000E+00  0.00000000E+00  0.00000000E+00  0.00000000E+00
  0.00000000E+00  0.00000000E+00  0.00000000E+00  0.00000000E+00  0.00000000E+00
  0.00000000E+00  0.00000000E+00  0.00000000E+00  0.00000000E+00  0.00000000E+00
  0.00000000E+00  0.00000000E+00  0.00000000E+00  0.00000000E+00  0.00000000E+00
  0.00000000E+00  0.00000000E+00  0.00000000E+00  0.00000000E+00  0.00000000E+00
  0.00000000E+00  0.00000000E+00  0.00000000E+00  0.00000000E+00  0.00000000E+00
  0.00000000E+00  0.00000000E+00  0.00000000E+00  0.00000000E+00  0.00000000E+00
  0.00000000E+00  0.00000000E+00  0.00000000E+00  0.00000000E+00  0.00000000E+00
  0.00000000E+00  0.00000000E+00  0.00000000E+00  0.00000000E+00  0.00000000E+00
  0.00000000E+00  0.00000000E+00  0.00000000E+00  0.00000000E+00  0.00000000E+00
  0.00000000E+00  0.00000000E+00  0.00000000E+00  0.00000000E+00  0.00000000E+00
  0.00000000E+00  0.00000000E+00  0.00000000E+00  0.00000000E+00  0.00000000E+00
  0.00000000E+00  0.00000000E+00  0.00000000E+00  0.00000000E+00  0.00000000E+00
  0.00000000E+00  0.00000000E+00  0.00000000E+00  0.00000000E+00  0.00000000E+00
  0.00000000E+00  0.00000000E+00  0.00000000E+00  0.00000000E+00  0.00000000E+00
  0.00000000E+00  0.00000000E+00  0.00000000E+00  0.00000000E+00  0.00000000E+00
  0.00000000E+00  0.00000000E+00  0.00000000E+00  0.00000000E+00  0.00000000E+00
  0.00000000E+00  0.00000000E+00  0.00000000E+00  0.00000000E+00  0.00000000E+00
  0.00000000E+00  0.00000000E+00  0.00000000E+00  0.00000000E+00  0.00000000E+00
  0.00000000E+00  0.00000000E+00  0.00000000E+00  0.00000000E+00  0.00000000E+00
  0.00000000E+00  0.00000000E+00  0.00000000E+00  0.00000000E+00  0.00000000E+00
  0.00000000E+00  0.00000000E+00  0.00000000E+00  0.00000000E+00  0.00000000E+00
  0.00000000E+00  0.00000000E+00  0.00000000E+00  0.00000000E+00  0.00000000E+00
  0.00000000E+00  0.00000000E+00  0.00000000E+00  0.00000000E+00  0.00000000E+00
  0.00000000E+00  0.00000000E+00  0.00000000E+00  0.00000000E+00  0.00000000E+00
  0.00000000E+00  0.00000000E+00  0.00000000E+00  0.00000000E+00  0.00000000E+00
  0.00000000E+00  0.00000000E+00  0.00000000E+00  0.00000000E+00  0.00000000E+00
  0.00000000E+00  0.00000000E+00  0.00000000E+00  0.00000000E+00  0.00000000E+00
  0.00000000E+00  0.00000000E+00  0.00000000E+00  0.00000000E+00  0.00000000E+00
  0.00000000E+00  0.00000000E+00  0.00000000E+00  0.00000000E+00  0.00000000E+00
  0.00000000E+00  0.00000000E+00  0.00000000E+00  0.00000000E+00  0.00000000E+00
  0.00000000E+00  0.00000000E+00  0.00000000E+00  0.00000000E+00  0.00000000E+00
  0.00000000E+00  0.00000000E+00  0.00000000E+00  0.00000000E+00  0.00000000E+00
  0.00000000E+00  0.00000000E+00  0.00000000E+00  0.00000000E+00  0.00000000E+00
  0.00000000E+00  0.00000000E+00  0.00000000E+00  0.00000000E+00  0.00000000E+00
  0.00000000E+00  0.00000000E+00  0.00000000E+00  0.00000000E+00  0.00000000E+00
  0.00000000E+00  0.00000000E+00  0.00000000E+00  0.00000000E+00  0.00000000E+00
  0.00000000E+00  0.00000000E+00  0.00000000E+00  0.00000000E+00  0.00000000E+00
  0.00000000E+00  0.00000000E+00  0.00000000E+00  0.00000000E+00  0.00000000E+00
  0.00000000E+00  0.00000000E+00  0.00000000E+00  0.00000000E+00  0.00000000E+00
  0.00000000E+00  0.00000000E+00  0.00000000E+00  0.00000000E+00  0.00000000E+00
  0.00000000E+00  0.00000000E+00  0.00000000E+00  0.00000000E+00  0.00000000E+00
  0.00000000E+00  0.00000000E+00  0.00000000E+00  0.00000000E+00  0.00000000E+00
  0.00000000E+00  0.00000000E+00  0.00000000E+00  0.00000000E+00  0.00000000E+00
  0.00000000E+00  0.00000000E+00  0.00000000E+00  0.00000000E+00  0.00000000E+00
  0.00000000E+00  0.00000000E+00  0.00000000E+00  0.00000000E+00  0.00000000E+00
  0.00000000E+00  0.00000000E+00  0.00000000E+00  0.00000000E+00  0.00000000E+00
  0.00000000E+00  0.00000000E+00  0.00000000E+00  0.00000000E+00  0.00000000E+00
  0.00000000E+00  0.00000000E+00  0.00000000E+00  0.00000000E+00  0.00000000E+00
  0.00000000E+00  0.00000000E+00  0.00000000E+00  0.00000000E+00  0.00000000E+00
  0.00000000E+00  0.00000000E+00  0.00000000E+00  0.00000000E+00  0.00000000E+00
  0.00000000E+00  0.00000000E+00  0.00000000E+00  0.00000000E+00  0.00000000E+00
  0.00000000E+00  0.00000000E+00  0.00000000E+00  0.00000000E+00  0.00000000E+00
  0.00000000E+00  0.00000000E+00  0.00000000E+00  0.00000000E+00  0.00000000E+00
  0.00000000E+00  0.00000000E+00  0.00000000E+00  0.00000000E+00  0.00000000E+00
  0.00000000E+00  0.00000000E+00  0.00000000E+00  0.00000000E+00  0.00000000E+00
  0.00000000E+00  0.00000000E+00  0.00000000E+00  0.00000000E+00  0.00000000E+00
  0.00000000E+00  0.00000000E+00  0.00000000E+00  0.00000000E+00  0.00000000E+00
  0.00000000E+00  0.00000000E+00  0.00000000E+00  0.00000000E+00  0.00000000E+00
  0.00000000E+00  0.00000000E+00  0.00000000E+00  0.00000000E+00  0.00000000E+00
  0.00000000E+00  0.00000000E+00  0.00000000E+00  0.00000000E+00  0.00000000E+00
  0.00000000E+00  0.00000000E+00  0.00000000E+00  0.00000000E+00  0.00000000E+00
  0.00000000E+00  0.00000000E+00  0.00000000E+00  0.00000000E+00  0.00000000E+00
  0.00000000E+00  0.00000000E+00  0.00000000E+00  0.00000000E+00  0.00000000E+00
  0.00000000E+00  0.00000000E+00  0.00000000E+00  0.00000000E+00  0.00000000E+00
  0.00000000E+00  0.00000000E+00  0.00000000E+00  0.00000000E+00  0.00000000E+00
  0.00000000E+00  0.00000000E+00  0.00000000E+00  0.00000000E+00  0.00000000E+00
  0.00000000E+00  0.00000000E+00  0.00000000E+00  0.00000000E+00  0.00000000E+00
  0.00000000E+00  0.00000000E+00  0.00000000E+00  0.00000000E+00  0.00000000E+00
  0.00000000E+00  0.00000000E+00  0.00000000E+00  0.00000000E+00  0.00000000E+00
  0.00000000E+00  0.00000000E+00  0.00000000E+00  0.00000000E+00  0.00000000E+00
  0.00000000E+00  0.00000000E+00  0.00000000E+00  0.00000000E+00  0.00000000E+00
  0.00000000E+00  0.00000000E+00  0.00000000E+00  0.00000000E+00  0.00000000E+00
  0.00000000E+00  0.00000000E+00  0.00000000E+00  0.00000000E+00  0.00000000E+00
  0.00000000E+00  0.00000000E+00  0.00000000E+00  0.00000000E+00  0.00000000E+00
  0.00000000E+00  0.00000000E+00  0.00000000E+00  0.00000000E+00  0.00000000E+00
  0.00000000E+00  0.00000000E+00  0.00000000E+00  0.00000000E+00  0.00000000E+00
  0.00000000E+00  0.00000000E+00  0.00000000E+00  0.00000000E+00  0.00000000E+00
  0.00000000E+00  0.00000000E+00  0.00000000E+00  0.00000000E+00  0.00000000E+00
  0.00000000E+00  0.00000000E+00  0.00000000E+00  0.00000000E+00  0.00000000E+00
  0.00000000E+00  0.00000000E+00  0.00000000E+00  0.00000000E+00  0.00000000E+00
  0.00000000E+00  0.00000000E+00  0.00000000E+00  0.00000000E+00  0.00000000E+00
  0.00000000E+00  0.00000000E+00  0.00000000E+00  0.00000000E+00  0.00000000E+00
  0.00000000E+00  0.00000000E+00  0.00000000E+00  0.00000000E+00  0.00000000E+00
  0.00000000E+00  0.00000000E+00  0.00000000E+00  0.00000000E+00  0.00000000E+00
  0.00000000E+00  0.00000000E+00  0.00000000E+00  0.00000000E+00  0.00000000E+00
  0.00000000E+00  0.00000000E+00  0.00000000E+00  0.00000000E+00  0.00000000E+00
  0.00000000E+00  0.00000000E+00  0.00000000E+00  0.00000000E+00  0.00000000E+00
  0.00000000E+00  0.00000000E+00  0.00000000E+00  0.00000000E+00  0.00000000E+00
  0.00000000E+00  0.00000000E+00  0.00000000E+00  0.00000000E+00  0.00000000E+00
  0.00000000E+00  0.00000000E+00  0.00000000E+00  0.00000000E+00  0.00000000E+00
  0.00000000E+00  0.00000000E+00  0.00000000E+00  0.00000000E+00  0.00000000E+00
  0.00000000E+00  0.00000000E+00  0.00000000E+00  0.00000000E+00  0.00000000E+00
  0.00000000E+00  0.00000000E+00  0.00000000E+00  0.00000000E+00  0.00000000E+00
  0.00000000E+00  0.00000000E+00  0.00000000E+00  0.00000000E+00  0.00000000E+00
  0.00000000E+00  0.00000000E+00  0.00000000E+00  0.00000000E+00  0.00000000E+00
  0.00000000E+00  0.00000000E+00  0.00000000E+00  0.00000000E+00  0.00000000E+00
  0.00000000E+00  0.00000000E+00  0.00000000E+00  0.00000000E+00  0.00000000E+00
  0.00000000E+00  0.00000000E+00  0.00000000E+00  0.00000000E+00  0.00000000E+00
  0.00000000E+00  0.00000000E+00  0.00000000E+00  0.00000000E+00  0.00000000E+00
  0.00000000E+00  0.00000000E+00  0.00000000E+00  0.00000000E+00  0.00000000E+00
  0.00000000E+00  0.00000000E+00  0.00000000E+00  0.00000000E+00  0.00000000E+00
  0.00000000E+00  0.00000000E+00  0.00000000E+00  0.00000000E+00  0.00000000E+00
  0.00000000E+00  0.00000000E+00  0.00000000E+00  0.00000000E+00  0.00000000E+00
  0.00000000E+00  0.00000000E+00  0.00000000E+00  0.00000000E+00  0.00000000E+00
  0.00000000E+00  0.00000000E+00  0.00000000E+00  0.00000000E+00  0.00000000E+00
  0.00000000E+00  0.00000000E+00  0.00000000E+00  0.00000000E+00  0.00000000E+00
  0.00000000E+00  0.00000000E+00  0.00000000E+00  0.00000000E+00  0.00000000E+00
  0.00000000E+00  0.00000000E+00  0.00000000E+00  0.00000000E+00  0.00000000E+00
  0.00000000E+00  0.00000000E+00  0.00000000E+00  0.00000000E+00  0.00000000E+00
  0.00000000E+00  0.00000000E+00  0.00000000E+00  0.00000000E+00  0.00000000E+00
  0.00000000E+00  0.00000000E+00  0.00000000E+00  0.00000000E+00  0.00000000E+00
  0.00000000E+00  0.00000000E+00  0.00000000E+00  0.00000000E+00  0.00000000E+00
  0.00000000E+00  0.00000000E+00  0.00000000E+00  0.00000000E+00  0.00000000E+00
  0.00000000E+00  0.00000000E+00  0.00000000E+00  0.00000000E+00  0.00000000E+00
  0.00000000E+00  0.00000000E+00  0.00000000E+00  0.00000000E+00  0.00000000E+00
  0.00000000E+00  0.00000000E+00  0.00000000E+00  0.00000000E+00  0.00000000E+00
  0.00000000E+00  0.00000000E+00  0.00000000E+00  0.00000000E+00  0.00000000E+00
  0.00000000E+00  0.00000000E+00  0.00000000E+00  0.00000000E+00  0.00000000E+00
  0.00000000E+00  0.00000000E+00  0.00000000E+00  0.00000000E+00  0.00000000E+00
  0.00000000E+00  0.00000000E+00  0.00000000E+00  0.00000000E+00  0.00000000E+00
  0.00000000E+00  0.00000000E+00  0.00000000E+00  0.00000000E+00  0.00000000E+00
  0.00000000E+00  0.00000000E+00  0.00000000E+00  0.00000000E+00  0.00000000E+00
  0.00000000E+00  0.00000000E+00  0.00000000E+00  0.00000000E+00  0.00000000E+00
  0.00000000E+00  0.00000000E+00  0.00000000E+00  0.00000000E+00  0.00000000E+00
  0.00000000E+00  0.00000000E+00  0.00000000E+00  0.00000000E+00  0.00000000E+00
  0.00000000E+00  0.00000000E+00  0.00000000E+00  0.00000000E+00  0.00000000E+00
  0.00000000E+00  0.00000000E+00  0.00000000E+00  0.00000000E+00  0.00000000E+00
  0.00000000E+00  0.00000000E+00  0.00000000E+00  0.00000000E+00  0.00000000E+00
  0.00000000E+00  0.00000000E+00  0.00000000E+00  0.00000000E+00  0.00000000E+00
  0.00000000E+00  0.00000000E+00  0.00000000E+00  0.00000000E+00  0.00000000E+00
  0.00000000E+00  0.00000000E+00  0.00000000E+00  0.00000000E+00  0.00000000E+00
  0.00000000E+00  0.00000000E+00  0.00000000E+00  0.00000000E+00  0.00000000E+00
  0.00000000E+00  0.00000000E+00  0.00000000E+00  0.00000000E+00  0.00000000E+00
  0.00000000E+00  0.00000000E+00  0.00000000E+00  0.00000000E+00  0.00000000E+00
  0.00000000E+00  0.00000000E+00  0.00000000E+00  0.00000000E+00  0.00000000E+00
  0.00000000E+00  0.00000000E+00  0.00000000E+00  0.00000000E+00  0.00000000E+00
  0.00000000E+00  0.00000000E+00  0.00000000E+00  0.00000000E+00  0.00000000E+00
  0.00000000E+00  0.00000000E+00  0.00000000E+00  0.00000000E+00  0.00000000E+00
  0.00000000E+00  0.00000000E+00  0.00000000E+00  0.00000000E+00  0.00000000E+00
  0.00000000E+00  0.00000000E+00  0.00000000E+00  0.00000000E+00  0.00000000E+00
  0.00000000E+00  0.00000000E+00  0.00000000E+00  0.00000000E+00  0.00000000E+00
  0.00000000E+00  0.00000000E+00  0.00000000E+00  0.00000000E+00  0.00000000E+00
  0.00000000E+00  0.00000000E+00  0.00000000E+00  0.00000000E+00  0.00000000E+00
  0.00000000E+00  0.00000000E+00  0.00000000E+00  0.00000000E+00  0.00000000E+00
  0.00000000E+00  0.00000000E+00  0.00000000E+00  0.00000000E+00  0.00000000E+00
  0.00000000E+00  0.00000000E+00  0.00000000E+00  0.00000000E+00  0.00000000E+00
  0.00000000E+00  0.00000000E+00  0.00000000E+00  0.00000000E+00  0.00000000E+00
  0.00000000E+00  0.00000000E+00  0.00000000E+00  0.00000000E+00  0.00000000E+00
  0.00000000E+00  0.00000000E+00  0.00000000E+00  0.00000000E+00  0.00000000E+00
  0.00000000E+00  0.00000000E+00  0.00000000E+00  0.00000000E+00  0.00000000E+00
  0.00000000E+00  0.00000000E+00  0.00000000E+00  0.00000000E+00  0.00000000E+00
  0.00000000E+00  0.00000000E+00  0.00000000E+00  0.00000000E+00  0.00000000E+00
  0.00000000E+00  0.00000000E+00  0.00000000E+00  0.00000000E+00  0.00000000E+00
  0.00000000E+00  0.00000000E+00  0.00000000E+00  0.00000000E+00  0.00000000E+00
  0.00000000E+00  0.00000000E+00  0.00000000E+00  0.00000000E+00  0.00000000E+00
  0.00000000E+00  0.00000000E+00  0.00000000E+00  0.00000000E+00  0.00000000E+00
  0.00000000E+00  0.00000000E+00  0.00000000E+00  0.00000000E+00  0.00000000E+00
  0.00000000E+00  0.00000000E+00  0.00000000E+00  0.00000000E+00  0.00000000E+00
  0.00000000E+00  0.00000000E+00  0.00000000E+00  0.00000000E+00  0.00000000E+00
  0.00000000E+00  0.00000000E+00  0.00000000E+00  0.00000000E+00  0.00000000E+00
  0.00000000E+00  0.00000000E+00  0.00000000E+00  0.00000000E+00  0.00000000E+00
  0.00000000E+00  0.00000000E+00  0.00000000E+00  0.00000000E+00  0.00000000E+00
  0.00000000E+00  0.00000000E+00  0.00000000E+00  0.00000000E+00  0.00000000E+00
  0.00000000E+00  0.00000000E+00  0.00000000E+00  0.00000000E+00  0.00000000E+00
  0.00000000E+00  0.00000000E+00  0.00000000E+00  0.00000000E+00  0.00000000E+00
  0.00000000E+00  0.00000000E+00  0.00000000E+00  0.00000000E+00  0.00000000E+00
  0.00000000E+00  0.00000000E+00  0.00000000E+00  0.00000000E+00  0.00000000E+00
  0.00000000E+00  0.00000000E+00  0.00000000E+00  0.00000000E+00  0.00000000E+00
  0.00000000E+00  0.00000000E+00  0.00000000E+00  0.00000000E+00  0.00000000E+00
  0.00000000E+00  0.00000000E+00  0.00000000E+00  0.00000000E+00  0.00000000E+00
  0.00000000E+00  0.00000000E+00  0.00000000E+00  0.00000000E+00  0.00000000E+00
  0.00000000E+00  0.00000000E+00  0.00000000E+00  0.00000000E+00  0.00000000E+00
  0.00000000E+00  0.00000000E+00  0.00000000E+00  0.00000000E+00  0.00000000E+00
  0.00000000E+00  0.00000000E+00  0.00000000E+00  0.00000000E+00  0.00000000E+00
  0.00000000E+00  0.00000000E+00  0.00000000E+00  0.00000000E+00  0.00000000E+00
  0.00000000E+00  0.00000000E+00  0.00000000E+00  0.00000000E+00  0.00000000E+00
  0.00000000E+00  0.00000000E+00  0.00000000E+00  0.00000000E+00  0.00000000E+00
  0.00000000E+00  0.00000000E+00  0.00000000E+00  0.00000000E+00  0.00000000E+00
  0.00000000E+00  0.00000000E+00  0.00000000E+00  0.00000000E+00  0.00000000E+00
  0.00000000E+00  0.00000000E+00  0.00000000E+00  0.00000000E+00  0.00000000E+00
  0.00000000E+00  0.00000000E+00  0.00000000E+00  0.00000000E+00  0.00000000E+00
  0.00000000E+00  0.00000000E+00  0.00000000E+00  0.00000000E+00  0.00000000E+00
  0.00000000E+00  0.00000000E+00  0.00000000E+00  0.00000000E+00  0.00000000E+00
  0.00000000E+00  0.00000000E+00  0.00000000E+00  0.00000000E+00  0.00000000E+00
  0.00000000E+00  0.00000000E+00  0.00000000E+00  0.00000000E+00  0.00000000E+00
  0.00000000E+00  0.00000000E+00  0.00000000E+00  0.00000000E+00  0.00000000E+00
  0.00000000E+00  0.00000000E+00  0.00000000E+00  0.00000000E+00  0.00000000E+00
  0.00000000E+00  0.00000000E+00  0.00000000E+00  0.00000000E+00  0.00000000E+00
  0.00000000E+00  0.00000000E+00  0.00000000E+00  0.00000000E+00  0.00000000E+00
  0.00000000E+00  0.00000000E+00  0.00000000E+00  0.00000000E+00  0.00000000E+00
  0.00000000E+00  0.00000000E+00  0.00000000E+00  0.00000000E+00  0.00000000E+00
  0.00000000E+00  0.00000000E+00  0.00000000E+00  0.00000000E+00  0.00000000E+00
  0.00000000E+00  0.00000000E+00  0.00000000E+00  0.00000000E+00  0.00000000E+00
  0.00000000E+00  0.00000000E+00  0.00000000E+00  0.00000000E+00  0.00000000E+00
  0.00000000E+00  0.00000000E+00  0.00000000E+00  0.00000000E+00  0.00000000E+00
  0.00000000E+00  0.00000000E+00  0.00000000E+00  0.00000000E+00  0.00000000E+00
  0.00000000E+00  0.00000000E+00  0.00000000E+00  0.00000000E+00  0.00000000E+00
  0.00000000E+00  0.00000000E+00  0.00000000E+00  0.00000000E+00  0.00000000E+00
  0.00000000E+00  0.00000000E+00  0.00000000E+00  0.00000000E+00  0.00000000E+00
  0.00000000E+00  0.00000000E+00  0.00000000E+00  0.00000000E+00  0.00000000E+00
  0.00000000E+00  0.00000000E+00  0.00000000E+00  0.00000000E+00  0.00000000E+00
  0.00000000E+00  0.00000000E+00  0.00000000E+00  0.00000000E+00  0.00000000E+00
  0.00000000E+00  0.00000000E+00  0.00000000E+00  0.00000000E+00  0.00000000E+00
  0.00000000E+00  0.00000000E+00  0.00000000E+00  0.00000000E+00  0.00000000E+00
  0.00000000E+00  0.00000000E+00  0.00000000E+00  0.00000000E+00  0.00000000E+00
  0.00000000E+00  0.00000000E+00  0.00000000E+00  0.00000000E+00  0.00000000E+00
  0.00000000E+00  0.00000000E+00  0.00000000E+00  0.00000000E+00  0.00000000E+00
  0.00000000E+00  0.00000000E+00  0.00000000E+00  0.00000000E+00  0.00000000E+00
  0.00000000E+00  0.00000000E+00  0.00000000E+00  0.00000000E+00  0.00000000E+00
  0.00000000E+00  0.00000000E+00  0.00000000E+00  0.00000000E+00  0.00000000E+00
  0.00000000E+00  0.00000000E+00  0.00000000E+00  0.00000000E+00  0.00000000E+00
  0.00000000E+00  0.00000000E+00  0.00000000E+00  0.00000000E+00  0.00000000E+00
  0.00000000E+00  0.00000000E+00  0.00000000E+00  0.00000000E+00  0.00000000E+00
  0.00000000E+00  0.00000000E+00  0.00000000E+00  0.00000000E+00  0.00000000E+00
  0.00000000E+00  0.00000000E+00  0.00000000E+00  0.00000000E+00  0.00000000E+00
  0.00000000E+00  0.00000000E+00  0.00000000E+00  0.00000000E+00  0.00000000E+00
  0.00000000E+00  0.00000000E+00  0.00000000E+00  0.00000000E+00  0.00000000E+00
  0.00000000E+00  0.00000000E+00  0.00000000E+00  0.00000000E+00  0.00000000E+00
  0.00000000E+00  0.00000000E+00  0.00000000E+00  0.00000000E+00  0.00000000E+00
  0.00000000E+00  0.00000000E+00  0.00000000E+00  0.00000000E+00  0.00000000E+00
  0.00000000E+00  0.00000000E+00  0.00000000E+00  0.00000000E+00  0.00000000E+00
  0.00000000E+00  0.00000000E+00  0.00000000E+00  0.00000000E+00  0.00000000E+00
  0.00000000E+00  0.00000000E+00  0.00000000E+00  0.00000000E+00  0.00000000E+00
  0.00000000E+00  0.00000000E+00  0.00000000E+00  0.00000000E+00  0.00000000E+00
  0.00000000E+00  0.00000000E+00  0.00000000E+00  0.00000000E+00  0.00000000E+00
  0.00000000E+00  0.00000000E+00  0.00000000E+00  0.00000000E+00  0.00000000E+00
  0.00000000E+00  0.00000000E+00  0.00000000E+00  0.00000000E+00  0.00000000E+00
  0.00000000E+00  0.00000000E+00  0.00000000E+00  0.00000000E+00  0.00000000E+00
  0.00000000E+00  0.00000000E+00  0.00000000E+00  0.00000000E+00  0.00000000E+00
  0.00000000E+00  0.00000000E+00  0.00000000E+00  0.00000000E+00  0.00000000E+00
  0.00000000E+00  0.00000000E+00  0.00000000E+00  0.00000000E+00  0.00000000E+00
  0.00000000E+00  0.00000000E+00  0.00000000E+00  0.00000000E+00  0.00000000E+00
  0.00000000E+00  0.00000000E+00  0.00000000E+00  0.00000000E+00  0.00000000E+00
  0.00000000E+00  0.00000000E+00  0.00000000E+00  0.00000000E+00  0.00000000E+00
  0.00000000E+00  0.00000000E+00  0.00000000E+00  0.00000000E+00  0.00000000E+00
  0.00000000E+00  0.00000000E+00  0.00000000E+00  0.00000000E+00  0.00000000E+00
  0.00000000E+00  0.00000000E+00  0.00000000E+00  0.00000000E+00  0.00000000E+00
  0.00000000E+00  0.00000000E+00  0.00000000E+00  0.00000000E+00  0.00000000E+00
  0.00000000E+00  0.00000000E+00  0.00000000E+00  0.00000000E+00  0.00000000E+00
  0.00000000E+00  0.00000000E+00  0.00000000E+00  0.00000000E+00  0.00000000E+00
  0.00000000E+00  0.00000000E+00  0.00000000E+00  0.00000000E+00  0.00000000E+00
  0.00000000E+00  0.00000000E+00  0.00000000E+00  0.00000000E+00  0.00000000E+00
  0.00000000E+00  0.00000000E+00  0.00000000E+00  0.00000000E+00  0.00000000E+00
  0.00000000E+00  0.00000000E+00  0.00000000E+00  0.00000000E+00  0.00000000E+00
  0.00000000E+00  0.00000000E+00  0.00000000E+00  0.00000000E+00  0.00000000E+00
  0.00000000E+00  0.00000000E+00  0.00000000E+00  0.00000000E+00  0.00000000E+00
  0.00000000E+00  0.00000000E+00  0.00000000E+00  0.00000000E+00  0.00000000E+00
  0.00000000E+00  0.00000000E+00  0.00000000E+00  0.00000000E+00  0.00000000E+00
  0.00000000E+00  0.00000000E+00  0.00000000E+00  0.00000000E+00  0.00000000E+00
  0.00000000E+00  0.00000000E+00  0.00000000E+00  0.00000000E+00  0.00000000E+00
  0.00000000E+00  0.00000000E+00  0.00000000E+00  0.00000000E+00  0.00000000E+00
  0.00000000E+00  0.00000000E+00  0.00000000E+00  0.00000000E+00  0.00000000E+00
  0.00000000E+00  0.00000000E+00  0.00000000E+00  0.00000000E+00  0.00000000E+00
  0.00000000E+00  0.00000000E+00  0.00000000E+00  0.00000000E+00  0.00000000E+00
  0.00000000E+00  0.00000000E+00  0.00000000E+00  0.00000000E+00  0.00000000E+00
  0.00000000E+00  0.00000000E+00  0.00000000E+00  0.00000000E+00  0.00000000E+00
  0.00000000E+00  0.00000000E+00  0.00000000E+00  0.00000000E+00  0.00000000E+00
  0.00000000E+00  0.00000000E+00  0.00000000E+00  0.00000000E+00  0.00000000E+00
  0.00000000E+00  0.00000000E+00  0.00000000E+00  0.00000000E+00  0.00000000E+00
  0.00000000E+00  0.00000000E+00  0.00000000E+00  0.00000000E+00  0.00000000E+00
  0.00000000E+00  0.00000000E+00  0.00000000E+00  0.00000000E+00  0.00000000E+00
  0.00000000E+00  0.00000000E+00  0.00000000E+00  0.00000000E+00  0.00000000E+00
  0.00000000E+00  0.00000000E+00  0.00000000E+00  0.00000000E+00  0.00000000E+00
  0.00000000E+00  0.00000000E+00  0.00000000E+00  0.00000000E+00  0.00000000E+00
  0.00000000E+00  0.00000000E+00  0.00000000E+00  0.00000000E+00  0.00000000E+00
  0.00000000E+00  0.00000000E+00  0.00000000E+00  0.00000000E+00  0.00000000E+00
  0.00000000E+00  0.00000000E+00  0.00000000E+00  0.00000000E+00  0.00000000E+00
  0.00000000E+00  0.00000000E+00  0.00000000E+00  0.00000000E+00  0.00000000E+00
  0.00000000E+00  0.00000000E+00  0.00000000E+00  0.00000000E+00  0.00000000E+00
  0.00000000E+00  0.00000000E+00  0.00000000E+00  0.00000000E+00  0.00000000E+00
  0.00000000E+00  0.00000000E+00  0.00000000E+00  0.00000000E+00  0.00000000E+00
  0.00000000E+00  0.00000000E+00  0.00000000E+00  0.00000000E+00  0.00000000E+00
  0.00000000E+00  0.00000000E+00  0.00000000E+00  0.00000000E+00  0.00000000E+00
  0.00000000E+00  0.00000000E+00  0.00000000E+00  0.00000000E+00  0.00000000E+00
  0.00000000E+00  0.00000000E+00  0.00000000E+00  0.00000000E+00  0.00000000E+00
  0.00000000E+00  0.00000000E+00  0.00000000E+00  0.00000000E+00  0.00000000E+00
  0.00000000E+00  0.00000000E+00  0.00000000E+00  0.00000000E+00  0.00000000E+00
  0.00000000E+00  0.00000000E+00  0.00000000E+00  0.00000000E+00  0.00000000E+00
  0.00000000E+00  0.00000000E+00  0.00000000E+00  0.00000000E+00  0.00000000E+00
  0.00000000E+00  0.00000000E+00  0.00000000E+00  0.00000000E+00  0.00000000E+00
  0.00000000E+00  0.00000000E+00  0.00000000E+00  0.00000000E+00  0.00000000E+00
  0.00000000E+00  0.00000000E+00  0.00000000E+00  0.00000000E+00  0.00000000E+00
  0.00000000E+00  0.00000000E+00  0.00000000E+00  0.00000000E+00  0.00000000E+00
  0.00000000E+00  0.00000000E+00  0.00000000E+00  0.00000000E+00  0.00000000E+00
  0.00000000E+00  0.00000000E+00  0.00000000E+00  0.00000000E+00  0.00000000E+00
  0.00000000E+00  0.00000000E+00  0.00000000E+00  0.00000000E+00  0.00000000E+00
  0.00000000E+00  0.00000000E+00  0.00000000E+00  0.00000000E+00  0.00000000E+00
  0.00000000E+00  0.00000000E+00  0.00000000E+00  0.00000000E+00  0.00000000E+00
  0.00000000E+00  0.00000000E+00  0.00000000E+00  0.00000000E+00  0.00000000E+00
  0.00000000E+00  0.00000000E+00  0.00000000E+00  0.00000000E+00  0.00000000E+00
  0.00000000E+00  0.00000000E+00  0.00000000E+00  0.00000000E+00  0.00000000E+00
  0.00000000E+00  0.00000000E+00  0.00000000E+00  0.00000000E+00  0.00000000E+00
  0.00000000E+00  0.00000000E+00  0.00000000E+00  0.00000000E+00  0.00000000E+00
  0.00000000E+00  0.00000000E+00  0.00000000E+00  0.00000000E+00  0.00000000E+00
  0.00000000E+00  0.00000000E+00  0.00000000E+00  0.00000000E+00  0.00000000E+00
  0.00000000E+00  0.00000000E+00  0.00000000E+00  0.00000000E+00  0.00000000E+00
  0.00000000E+00  0.00000000E+00  0.00000000E+00  0.00000000E+00  0.00000000E+00
  0.00000000E+00  0.00000000E+00  0.00000000E+00  0.00000000E+00  0.00000000E+00
  0.00000000E+00  0.00000000E+00  0.00000000E+00  0.00000000E+00  0.00000000E+00
  0.00000000E+00  0.00000000E+00  0.00000000E+00  0.00000000E+00  0.00000000E+00
  0.00000000E+00  0.00000000E+00  0.00000000E+00  0.00000000E+00  0.00000000E+00
  0.00000000E+00  0.00000000E+00  0.00000000E+00  0.00000000E+00  0.00000000E+00
  0.00000000E+00  0.00000000E+00  0.00000000E+00  0.00000000E+00  0.00000000E+00
  0.00000000E+00  0.00000000E+00  0.00000000E+00  0.00000000E+00  0.00000000E+00
  0.00000000E+00  0.00000000E+00  0.00000000E+00  0.00000000E+00  0.00000000E+00
  0.00000000E+00  0.00000000E+00  0.00000000E+00  0.00000000E+00  0.00000000E+00
  0.00000000E+00  0.00000000E+00  0.00000000E+00  0.00000000E+00  0.00000000E+00
Gaussian Version                           C   N=           2
ES64L-G16RevA.03        
